BEGIN IONS
CHARGE=1+
PRECURSORTYPE=M-H+2Na
FORMULA=C20H20O7
ONTOLOGY=
INCHIKEY=TWCIUIDYHNZCAW-UHFFFAOYSA-N
INCHI=InChI=1S/C20H20O7/c1-22-13-6-8-16(23-2)14(10-13)15(21)7-5-12-9-17(24-3)19-20(18(12)25-4)27-11-26-19/h5-10H,11H2,1-4H3/b7-5+
SMILES=COc1ccc(OC)c(C(=O)C=Cc2cc(OC)c3c(c2OC)OCO3)c1
IONMODE=positive
INSTRUMENTTYPE=LC-ESI-Orbitrap
INSTRUMENT=Orbitrap
COMMENT=DB#=CCMSLIB00010125836; origin=GNPS
NUM_PEAKS=167
COMPOUND_NAME="(2E)-3-(4,7-dimethoxy(2H-benzo[d]1,3-dioxolen-5-yl))-1-(2,5-dimethoxyphenyl)pr op-2-en-1-one "
PRECURSOR_MZ=417.092
COLLISION_ENERGY=205060
PARENT_MASS=416.0847235480092
65.039062 0.01256973337797146
66.158333 0.0016429397493284326
66.622726 0.0015382310999714048
68.997337 0.011147010474151755
70.980827 0.007744214142804755
71.952522 0.002006837521757565
82.394157 0.001615706109585349
84.959877 0.008273861481256448
93.414307 0.0013992456281791165
95.012703 0.009046733395344644
119.085953 0.001609132472405984
120.089203 0.0016105411089444195
135.043976 0.05606796013934233
149.023346 0.4371074306046948
150.026474 0.014247419495247965
152.144012 0.0015753251954835356
167.001236 0.0019627002435532574
168.056503 0.002328476198033637
175.039093 0.006556263995390941
177.055008 0.0018082197698381806
181.015305 0.005904065278095373
191.001404 0.0016917724826608581
192.980515 0.006460007165264525
195.012482 0.008549484697276965
196.051819 0.0032159172172479093
202.522934 0.0025331980416195754
204.017242 0.002294199375598377
205.98877 0.0036065790839073138
206.995605 0.002490938945466515
209.010788 0.0026585666935403213
210.991989 0.012346229713873051
211.027252 0.0020692870749615326
212.045746 0.007652183222293645
217.52977 0.007258234537044559
220.035126 0.0023843521140582396
221.01297 0.002482956671748714
222.990509 0.003353963598014574
223.999603 0.018494928204143363
224.04631 0.002159439813421395
225.00618 0.010042169882505626
225.053299 0.002722894428795536
226.062546 0.006265615322960447
237.006775 0.0036554118172397393
238.01384 0.006709805378080394
239.022385 0.008654193346633993
240.037552 0.0020946425326533688
241.001465 0.0070990586082013635
241.050034 0.002150518448677971
242.009644 0.003325321321733055
243.453003 0.0017537524903520137
245.029312 0.0027844048909738796
250.017899 0.0018584611397090415
251.024429 0.0021087288980377226
251.994125 0.0034032658768598113
252.039536 0.005529367958871569
253.001541 0.01299842843116862
253.048782 0.008802100183169705
254.007721 0.00610315257552757
254.056992 0.02042522980731261
255.063705 0.003057210833917526
257.033478 0.002651523510848145
259.024231 0.0034215781518594705
267.017029 0.018235739081071258
267.063416 0.0029088344518690026
268.028687 0.007604759125499655
268.071777 0.001998385702526953
269.042938 0.002924798999304603
275.022949 0.002159439813421395
281.011353 0.009220934780597816
281.04364 0.006084370755015099
282.019562 0.0025646575909779646
282.051544 0.029536760483425278
283.028961 0.005431702492206718
283.059143 0.007113614519098529
285.029572 0.006447798981931419
286.011688 0.002361344383930462
287.0224 0.00221343754739475
293.010834 0.0019213802384258204
295.059357 0.009352877069697927
296.067169 0.003045472196097232
297.037872 0.007698668228062012
297.07486 0.024167507544422526
298.045197 0.007106571336406352
299.021667 0.016990504381094406
300.027954 0.0025477539525167407
301.03653 0.0031243558422496113
302.012329 0.0030102562826363477
309.034973 0.0029196339986636735
310.046875 0.06308250055523756
311.018219 0.01124091957671411
311.056183 0.01071690678441616
313.036346 0.0024561925775184426
315.015991 0.006139307580014077
315.085968 0.007045999965253632
317.032806 0.003694853640315929
323.056274 0.0027538844326411138
325.070099 0.6154187477315083
326.073181 0.051116602706742065
327.016205 0.006033190294118614
329.031555 0.006357646243471557
331.04776 0.005483352498616014
337.001465 0.008472948778688644
339.015594 0.003714574551854024
339.086914 0.002085251622397133
341.03125 0.009788615305587263
341.068634 0.006886354490897625
343.010529 0.007414593192810882
343.050842 0.002298425285213683
344.02066 0.008164926922284113
345.025818 0.005144810183878718
346.039703 0.002038297071115955
351.014038 0.002367918021109827
354.006226 0.002742615340333631
355.011719 0.12673362072649022
356.017029 0.007128639975508506
357.026276 0.013431349393981084
357.999268 0.0021369016288064293
359.043213 0.01310360662603846
361.048889 0.001641531112789997
361.547119 0.0017255797595833065
368.557831 0.19236950978039827
369.063263 0.027648717976409096
370.039764 0.002407829389698829
371.044312 0.00652433490051974
372.012085 0.01311722344591
373.022247 0.10368128377499566
374.026886 0.00998253760237853
375.034912 0.0021500489031651593
376.069733 1.0
376.57132 0.19622870435019832
377.563293 0.08275176208692321
378.017548 0.0022040466371385146
378.069641 0.012650025660662275
381.022064 0.002238323459573775
385.07486 0.18846852565995795
385.577454 0.04099789690564812
387.039398 0.03917559077042558
388.003418 0.003733825917879307
389.017395 0.004348460994149933
389.07016 0.021231908998323255
390.023315 0.003660107272367857
391.030884 0.0035046877076271563
396.037384 0.0023585271108535915
396.583038 0.1107671951088383
397.029907 0.002746841249948937
397.085114 0.01998103975219266
398.588318 0.002030784342910966
399.036926 0.005056066081957291
401.01532 0.008260714206897718
403.032898 0.014839046841390813
405.049561 0.012943022060656829
406.018158 0.003561972260190194
406.095367 0.006438877617187995
410.054474 0.00243177621085223
413.05423 0.015399684183688082
415.032135 0.008455106049201796
416.041595 0.002897095814048708
417.041962 0.018423557286195973
417.278473 0.007493946384476074
419.02063 0.002361344383930462
419.068237 0.0026040994140541546
421.041748 0.003109799931352446
431.063141 0.015047055503566433
433.042938 0.0017321533967626715
435.057251 0.006106439394117252
445.077484 0.00201857615957786
450.900787 0.001848131138427182
END IONS

