BEGIN IONS
CHARGE=1+
PRECURSORTYPE=M-H2O+H
FORMULA=C7H6O3
ONTOLOGY=
INCHIKEY=YGSDEFSMJLZEOE-UHFFFAOYSA-N
INCHI=InChI=1S/C7H6O3/c8-6-4-2-1-3-5(6)7(9)10/h1-4,8H,(H,9,10)
SMILES=C1=CC=C(C(=C1)C(=O)O)O
IONMODE=positive
INSTRUMENTTYPE=LC-ESI-Orbitrap
INSTRUMENT=Orbitrap
COMMENT=DB#=CCMSLIB00010102223; origin=GNPS
NUM_PEAKS=21
COMPOUND_NAME=salicylic acid
PRECURSOR_MZ=121.028
COLLISION_ENERGY=102040
PARENT_MASS=120.02072354800924
53.038818 0.009180090794501898
55.018116 0.022601714794583463
55.054436 0.007030729973835906
61.353367 0.004674125357516873
65.038727 0.4289078032502902
66.75425 0.004291071457348255
74.41803 0.004933234058473763
79.054222 0.016566083816180372
80.025848 0.0073430664177622585
92.432167 0.005533386453223855
93.033577 0.09787093270773847
93.069656 0.030368636854521524
95.610085 0.004919973585966452
98.036324 0.045740630399578965
104.351006 0.005079112896922018
105.070038 0.011003817528146186
111.044022 0.061167113255033635
118.725464 0.0066304351850494225
121.028519 1.0
121.039215 0.10333932047232282
121.10141 0.01265896938233028
END IONS

BEGIN IONS
CHARGE=1+
PRECURSORTYPE=M-H2O+H
FORMULA=C10H9NO3
ONTOLOGY=
INCHIKEY=ILGMGHZPXRDCCS-UHFFFAOYSA-N
INCHI=InChI=1S/C10H9NO3/c12-9(13)5-7-6-3-1-2-4-8(6)11-10(7)14/h1-4,7H,5H2,(H,11,14)(H,12,13)
SMILES=C1=CC=C2C(=C1)C(C(=O)N2)CC(=O)O
IONMODE=positive
INSTRUMENTTYPE=LC-ESI-Orbitrap
INSTRUMENT=Orbitrap
COMMENT=DB#=CCMSLIB00010102115; origin=GNPS
NUM_PEAKS=15
COMPOUND_NAME=2-oxindole-3-acetic acid
PRECURSOR_MZ=174.054
COLLISION_ENERGY=102040
PARENT_MASS=173.04672354800925
54.665279 0.0005345054762908405
72.081261 0.0004960445048986189
77.868668 0.0005200953250216805
91.05407 0.0014522970539257005
118.065041 0.012191273269133891
128.049332 0.027524648223383085
130.039139 0.0009212241483372068
132.044327 0.04142684384190022
145.606323 0.0012714885173167269
146.059967 1.0
146.515686 0.0011807687332950469
147.064072 0.0007123138291462686
174.054443 0.0027078928403946262
174.128448 0.0011879890315115195
185.487793 0.0005881200686483438
END IONS

BEGIN IONS
CHARGE=1+
PRECURSORTYPE=M-H2O+H
FORMULA=C10H9NO3
ONTOLOGY=
INCHIKEY=ILGMGHZPXRDCCS-UHFFFAOYSA-N
INCHI=InChI=1S/C10H9NO3/c12-9(13)5-7-6-3-1-2-4-8(6)11-10(7)14/h1-4,7H,5H2,(H,11,14)(H,12,13)
SMILES=C1=CC=C2C(=C1)C(C(=O)N2)CC(=O)O
IONMODE=positive
INSTRUMENTTYPE=LC-ESI-Orbitrap
INSTRUMENT=Orbitrap
COMMENT=DB#=CCMSLIB00010102120; origin=GNPS
NUM_PEAKS=18
COMPOUND_NAME="(2-Oxo-2,3-dihydro-1H-indol-3-yl)acetic acid "
PRECURSOR_MZ=174.054
COLLISION_ENERGY=102040
PARENT_MASS=173.04672354800925
72.081215 0.001500439618630345
73.991898 0.0006186362073612828
77.039345 0.0007822852866585704
79.674423 0.0005955606716718299
97.950706 0.0005985839668606021
118.065407 0.008978915312144292
128.049667 0.01652618779241896
130.039505 0.004076840632378026
132.044571 0.0383087983448718
145.597137 0.0007161156595080127
145.607651 0.0006945918195344333
146.060287 1.0
146.52655 0.0007523010062091889
147.062866 0.0010352479266415768
174.055527 0.003880425446265457
174.128479 0.0017267618852597822
190.316895 0.0006867066061069277
265.285736 0.0006919460648213542
END IONS

