BEGIN IONS
CHARGE=1+
PRECURSORTYPE=M-H+2Na
FORMULA=C6H10O4
ONTOLOGY=
INCHIKEY=WNLRTRBMVRJNCN-UHFFFAOYSA-N
INCHI=InChI=1S/C6H10O4/c7-5(8)3-1-2-4-6(9)10/h1-4H2,(H,7,8)(H,9,10)
SMILES=O=C(O)CCCCC(=O)O
IONMODE=positive
INSTRUMENTTYPE=LC-ESI-Orbitrap
INSTRUMENT=Orbitrap
COMMENT=DB#=CCMSLIB00010102987; origin=GNPS
NUM_PEAKS=17
COMPOUND_NAME=adipic acid
PRECURSOR_MZ=191.029
COLLISION_ENERGY=102040
PARENT_MASS=190.02172354800925
50.429699 0.0046134153497580975
62.9823 0.06906785007595717
66.757698 0.006936457385167825
72.8284 0.005624174090029604
82.418297 0.007112050748399009
89.0056 0.005628712246167064
92.398102 0.005506782549424129
104.305 0.0064375477750697645
104.313004 0.006915151606013522
109.378998 0.006335122718036927
118.681 0.007205919662081521
121.768997 0.005161831082333418
129.029007 0.03733576602592417
130.514999 0.005231101928116972
173.018005 0.057174533094635535
191.029007 1.0
191.153 0.012321760203984417
END IONS

BEGIN IONS
CHARGE=1+
PRECURSORTYPE=M-H+2Na
FORMULA=C4H9NO3
ONTOLOGY=
INCHIKEY=AYFVYJQAPQTCCC-UHFFFAOYSA-N
INCHI=InChI=1S/C4H9NO3/c1-2(6)3(5)4(7)8/h2-3,6H,5H2,1H3,(H,7,8)
SMILES=CC(O)C(N)C(=O)O
IONMODE=positive
INSTRUMENTTYPE=LC-ESI-Orbitrap
INSTRUMENT=Orbitrap
COMMENT=DB#=CCMSLIB00010102930; origin=GNPS
NUM_PEAKS=16
COMPOUND_NAME=DL-Threonine
PRECURSOR_MZ=164.029
COLLISION_ENERGY=102040
PARENT_MASS=163.02172354800925
60.535702 0.014812465390699383
62.982601 0.6464326143834949
62.986198 0.032178740668271
64.2145 0.014476080868737303
65.353302 0.015406143010293203
82.396301 0.01833711903530276
84.415497 0.018670279498309458
104.282997 0.02071242800380841
118.651001 0.017724174864494072
120.003998 1.0
120.101997 0.022283397484050407
140.990997 0.025030850280008097
164.029999 0.496543181506721
164.074005 0.10200241399215827
164.106995 0.020975416960918817
164.128998 0.25484783931208715
END IONS

BEGIN IONS
CHARGE=1+
PRECURSORTYPE=M-H+2Na
FORMULA=C4H9NO3
ONTOLOGY=
INCHIKEY=AYFVYJQAPQTCCC-UHFFFAOYSA-N
INCHI=InChI=1S/C4H9NO3/c1-2(6)3(5)4(7)8/h2-3,6H,5H2,1H3,(H,7,8)
SMILES=CC(O)C(N)C(=O)O
IONMODE=positive
INSTRUMENTTYPE=LC-ESI-Orbitrap
INSTRUMENT=Orbitrap
COMMENT=DB#=CCMSLIB00010126545; origin=GNPS
NUM_PEAKS=16
COMPOUND_NAME=DL-Threonine
PRECURSOR_MZ=164.029
COLLISION_ENERGY=102040
PARENT_MASS=163.02172354800925
60.535702 0.014812465390699383
62.982601 0.6464326143834949
62.986198 0.032178740668271
64.2145 0.014476080868737303
65.353302 0.015406143010293203
82.396301 0.01833711903530276
84.415497 0.018670279498309458
104.282997 0.02071242800380841
118.651001 0.017724174864494072
120.003998 1.0
120.101997 0.022283397484050407
140.990997 0.025030850280008097
164.029999 0.496543181506721
164.074005 0.10200241399215827
164.106995 0.020975416960918817
164.128998 0.25484783931208715
END IONS

BEGIN IONS
CHARGE=1+
PRECURSORTYPE=M-H+2Na
FORMULA=C5H9NO4
ONTOLOGY=
INCHIKEY=JJIHLJJYMXLCOY-UHFFFAOYSA-N
INCHI=InChI=1S/C5H9NO4/c1-3(8)6-4(2-7)5(9)10/h4,7H,2H2,1H3,(H,6,8)(H,9,10)
SMILES=CC(O)=NC(CO)C(=O)O
IONMODE=positive
INSTRUMENTTYPE=LC-ESI-Orbitrap
INSTRUMENT=Orbitrap
COMMENT=DB#=CCMSLIB00010126844; origin=GNPS
NUM_PEAKS=13
COMPOUND_NAME=2-acetamido-3-hydroxypropanoic acid
PRECURSOR_MZ=192.024
COLLISION_ENERGY=102040
PARENT_MASS=191.01672354800925
62.982399 0.157468119217979
82.828796 0.00498558234617629
104.289001 0.0054671898638658034
130.024002 0.006117665565356311
130.516006 0.005280930581190481
144.003006 0.05558478875235813
157.975006 0.005997756346414226
162.014008 1.0
174.013 0.08729447801061654
179.632996 0.0065399818079845
190.059998 0.0051238464057286265
190.912003 0.005005614057569526
192.024002 0.5590849606553476
END IONS

