BEGIN IONS
CHARGE=1+
PRECURSORTYPE=M-e
FORMULA=C25H23FN2O
ONTOLOGY=
INCHIKEY=MAPYRMBCXVPHDO-UHFFFAOYSA-N
INCHI=InChI=1S/C25H23FN2O/c1-29-20-12-8-18(9-13-20)25-24-22(21-4-2-3-5-23(21)27-24)14-15-28(25)16-17-6-10-19(26)11-7-17/h2-13,25,27H,14-16H2,1H3
SMILES=COc1ccc(C2c3[nH]c4ccccc4c3CCN2Cc2ccc(F)cc2)cc1
IONMODE=positive
INSTRUMENTTYPE=LC-ESI-Orbitrap
INSTRUMENT=Orbitrap
COMMENT=DB#=CCMSLIB00010103992; origin=GNPS
NUM_PEAKS=31
COMPOUND_NAME="1-{2-[(4-fluorophenyl)methyl](1,2,3,4-tetrahydrobeta-carbolinyl)}-4-methoxyben zene "
PRECURSOR_MZ=386.179
COLLISION_ENERGY=102040
PARENT_MASS=385.1717235480092
73.981041 0.00044910193929949006
108.669693 0.0005373950942095917
109.044739 0.11209778490769308
110.04805 0.039335316402895504
130.064743 0.0010934033399948265
135.061035 0.0037211985342381765
136.063889 0.002138285216480498
140.49939 0.0005058959146200419
143.0728 0.0025159571980238877
144.077255 0.0009324075332037943
147.635925 0.0005254635867893077
149.473343 0.0004810783791858512
156.081223 0.0007349808570894948
157.084564 0.0007932066133004809
246.110809 0.0009384528302967381
249.109406 0.0007306855144181926
250.121399 0.0029302191356561486
252.11792 0.022442051850194992
253.121063 0.046366951442582884
275.117096 0.015160014241447257
276.12088 0.037635951572715855
277.128296 0.012865823994675047
313.441406 0.0005171910749779108
323.116241 0.0008982038785989801
340.115723 0.0006054842298880125
354.132782 0.003810446209741901
356.110382 0.0008223194914059738
371.149048 0.0007310036879494003
385.161469 0.000902021960973471
386.173309 1.0
387.184052 0.0018788147017807218
END IONS

BEGIN IONS
CHARGE=1+
PRECURSORTYPE=M-e
FORMULA=C14H15N5OS
ONTOLOGY=
INCHIKEY=KKSYXUAEBWBHOR-UHFFFAOYSA-N
INCHI=InChI=1S/C14H15N5OS/c1-9-2-4-10(5-3-9)20-7-6-19-13-11(18-14(19)21)12(15)16-8-17-13/h2-5,8H,6-7H2,1H3,(H,18,21)(H2,15,16,17)
SMILES=Cc1ccc(OCCn2c(S)nc3c(N)ncnc32)cc1
IONMODE=positive
INSTRUMENTTYPE=LC-ESI-Orbitrap
INSTRUMENT=Orbitrap
COMMENT=DB#=CCMSLIB00010104906; origin=GNPS
NUM_PEAKS=11
COMPOUND_NAME=6-amino-9-[2-(4-methylphenoxy)ethyl]purine-8-thiol
PRECURSOR_MZ=301.099
COLLISION_ENERGY=102040
PARENT_MASS=300.0917235480092
57.55946 0.006604071135696436
134.072632 0.024739791833466772
167.025909 1.0
168.019897 0.007448382948783269
168.033966 0.19584152170221025
181.040665 0.007011669942014217
194.049362 0.3497998398718975
260.089142 0.024320062110294294
301.098389 0.5979814154353786
301.599548 0.10005094985078972
302.105438 0.03886503141907465
END IONS

BEGIN IONS
CHARGE=1+
PRECURSORTYPE=M-e
FORMULA=C19H15NO4
ONTOLOGY=
INCHIKEY=GTHIKWPDZKULJR-UHFFFAOYSA-N
INCHI=InChI=1S/C19H15NO4/c1-11-3-5-14(7-12(11)2)18-15(19(21)24-20-18)8-13-4-6-16-17(9-13)23-10-22-16/h3-9H,10H2,1-2H3/b15-8-
SMILES=Cc1ccc(C2=NOC(=O)C2=Cc2ccc3c(c2)OCO3)cc1C
IONMODE=positive
INSTRUMENTTYPE=LC-ESI-Orbitrap
INSTRUMENT=Orbitrap
COMMENT=DB#=CCMSLIB00010107019; origin=GNPS
NUM_PEAKS=20
COMPOUND_NAME="4-(2H-benzo[3,4-d]1,3-dioxolan-5-ylmethylene)-3-(3,4-dimethylphenyl)isoxazol-5 -one "
PRECURSOR_MZ=321.1
COLLISION_ENERGY=102040
PARENT_MASS=320.09272354800925
58.265339 0.0016756940652629848
63.210388 0.0020005421814894937
66.735573 0.002094233600353877
71.472023 0.0017325232865413813
92.366364 0.0019682877586017556
105.06987 0.0042230255109446165
127.499481 0.0017202358873460524
133.064743 1.0
184.889374 0.01298240521231474
212.393906 0.0019283537112169363
234.504013 0.001884579851583577
252.874832 0.0024858944497049874
257.418762 0.0023868272936926477
274.852661 0.0037622480411197813
290.118561 0.0020589073276673065
321.098938 0.26571347167408904
321.166992 0.008419172336149451
321.239807 0.0033490842431768454
322.106689 0.01145032012514716
473.056793 0.0020374043790754807
END IONS

BEGIN IONS
CHARGE=1+
PRECURSORTYPE=M-e
FORMULA=C18H19NO4
ONTOLOGY=
INCHIKEY=OJQMJANMNHJQMO-UHFFFAOYSA-N
INCHI=InChI=1S/C18H19NO4/c1-11-16(18(21)23-3)14-10-15(20)12-6-4-5-7-13(12)17(14)19(11)8-9-22-2/h4-7,10,20H,8-9H2,1-3H3
SMILES=COCCn1c(C)c(C(=O)OC)c2cc(O)c3ccccc3c21
IONMODE=positive
INSTRUMENTTYPE=LC-ESI-Orbitrap
INSTRUMENT=Orbitrap
COMMENT=DB#=CCMSLIB00010110083; origin=GNPS
NUM_PEAKS=42
COMPOUND_NAME=methyl 5-hydroxy-1-(2-methoxyethyl)-2-methylbenzo[g]indole-3-carboxylate
PRECURSOR_MZ=313.131
COLLISION_ENERGY=102040
PARENT_MASS=312.1237235480092
50.410919 0.0005995800506823181
54.679298 0.0007594828085736188
57.099251 0.0006046668604077675
59.049561 0.006760370125122249
60.05307 0.0007727527469878346
91.05439 0.0077861363645411324
101.616333 0.0005697226892503325
128.246765 0.0006466883320527843
128.866226 0.000609311338852743
139.047958 0.000631649068516673
149.022934 0.0024239754169967562
157.953476 0.0007152496805262326
180.080627 0.0011480708384699054
196.075516 0.01688113098800442
196.11145 0.0034714158891588584
208.075363 0.007956655073163805
209.083679 0.010452730488877801
222.091156 0.001530245064799321
223.062668 0.014968269365595208
224.10672 0.10244547271722779
226.085571 0.003870398704146281
227.09671 0.0007446647106777444
236.070435 0.024004212763115235
240.06337 0.0012880686887398823
248.899246 0.0009645033570732531
253.103882 0.004416014338610788
254.081146 0.005880130876979267
254.116882 0.0030494318475867955
255.088928 0.027279454729383933
255.118607 0.0014888870900750149
266.080475 0.000767887102902622
268.096436 0.20690443742317258
281.102417 0.0024932002623909155
282.112579 0.004163222011819977
283.116211 0.0026661517930561952
285.130554 0.005692361248418112
313.1297 1.0
314.139954 0.0009324343392388983
386.028259 0.0006968929323865674
512.531433 0.0007488668578422461
526.181458 0.0007382509071108735
622.864868 0.0007028644046729646
END IONS

BEGIN IONS
CHARGE=1+
PRECURSORTYPE=M-e
FORMULA=C33H34N4O6
ONTOLOGY=
INCHIKEY=RCNSAJSGRJSBKK-YKSNQIBWSA-N
INCHI=InChI=1S/C33H34N4O6/c1-7-20-19(6)32(42)37-27(20)14-25-18(5)23(10-12-31(40)41)29(35-25)15-28-22(9-11-30(38)39)17(4)24(34-28)13-26-16(3)21(8-2)33(43)36-26/h7-8,13-15,34-35H,1-2,9-12H2,3-6H3,(H,37,42)(H,38,39)(H,40,41)/b24-13+,27-14-,28-15-
SMILES=C=CC1=C(C)C(/C=c2/[nH]/c(=C\c3[nH]c(/C=C4\N=C(O)C(C)=C4C=C)c(C)c3CCC(=O)O)c(CCC(=O)O)c2C)=NC1=O
IONMODE=positive
INSTRUMENTTYPE=LC-ESI-Orbitrap
INSTRUMENT=Orbitrap
COMMENT=DB#=CCMSLIB00010103072; origin=GNPS
NUM_PEAKS=94
COMPOUND_NAME=biliverdin
PRECURSOR_MZ=582.247
COLLISION_ENERGY=102040
PARENT_MASS=581.2397235480092
92.395699 0.0012358788217227419
101.863998 0.0009106798827306995
104.307999 0.0009119810026525199
140.289001 0.00080797430154963
181.587997 0.000788691888873377
211.087006 0.0013176992443948066
213.102005 0.001048571871059612
225.102005 0.008210302945693145
226.108002 0.0016718582036018429
227.117004 0.006168867792824236
237.100998 0.004629345246405138
238.108994 0.003665614965796454
239.117996 0.005753231886081251
240.123993 0.0036534692168085996
251.117996 0.00654357112941505
252.123001 0.003344330674968589
253.095993 0.011840346223649309
253.132004 0.00861527293033645
254.100006 0.009986597794220299
265.131989 0.0008920731428172554
267.113007 0.0010519838275024431
269.127991 0.0009072511299176323
271.105988 0.004588714138656988
273.122009 0.001486433102387268
279.112 0.0010531341616641073
283.106995 0.001964673932039648
284.11499 0.019727879380147983
285.121002 0.003160223326483317
286.131012 0.009808515984922519
287.140015 0.0010500181052073153
295.106995 0.030818260505374843
296.109985 0.03160184280329471
297.122986 0.02079486248778445
298.126007 0.01090347619712411
299.138 0.019322574340360183
309.122986 0.002960401978947368
315.134003 0.001084562377830518
318.161011 0.0011116515644841547
328.144012 0.0017195588440597515
329.149994 0.0011027391194192379
330.158997 0.004610632329359207
331.166992 0.0009883121160966075
335.13501 0.0011132375139466706
342.15799 0.0033925786157755133
343.164001 0.0014758509440737121
344.175995 0.0030298700789054864
348.141998 0.0009793438285076086
355.161987 0.000817193934999302
356.174011 0.0009921485629484851
357.183014 0.0038103701312299314
386.149994 0.0012663353561915397
388.162994 0.00309399409292196
401.17099 0.0036084991885522825
402.181 0.005011548059472288
403.184998 0.0019545553102889852
416.197998 0.005681697612732095
435.178009 0.017283652101074968
437.196991 0.0009281195466145471
446.171997 0.0019181348596956581
448.187988 0.005145380339969287
449.196014 0.014084880636604775
450.203003 0.036808990646377215
451.210999 0.0015756303006561497
452.221985 0.002981387643110429
460.196014 0.0012353148340639396
462.204987 0.0034241518916655034
463.212006 0.011693982968030155
464.216003 0.021030797152031273
465.227997 0.02472411000977244
477.230011 0.0018987686287309789
478.230011 0.003288817534552562
479.242004 0.029096188747731396
491.203003 0.0013091776969984643
493.178009 0.001002619036213877
494.187988 0.0013399581617199497
495.229004 0.0012896719687840292
504.213989 0.0011203350769789194
505.222992 0.008444171436548933
506.204987 0.0019116961730559821
507.20401 0.0015945609163199777
508.207001 0.006177635069105123
509.21701 0.037088426636883984
520.241028 0.0012249281245846713
521.223999 0.003033991300795756
522.223999 0.001976842148876169
523.231995 0.06327181348596957
537.247009 0.00886868630462097
538.255005 0.05491492391456094
564.232971 0.005086410634538602
565.218018 0.0009608209069384336
567.223022 0.015666452603657684
580.577026 0.0009435655669970683
581.237976 0.0013605975368421051
582.244995 1.0
END IONS

BEGIN IONS
CHARGE=1+
PRECURSORTYPE=M-e
FORMULA=C33H34N4O6
ONTOLOGY=
INCHIKEY=RCNSAJSGRJSBKK-YKSNQIBWSA-N
INCHI=InChI=1S/C33H34N4O6/c1-7-20-19(6)32(42)37-27(20)14-25-18(5)23(10-12-31(40)41)29(35-25)15-28-22(9-11-30(38)39)17(4)24(34-28)13-26-16(3)21(8-2)33(43)36-26/h7-8,13-15,34-35H,1-2,9-12H2,3-6H3,(H,37,42)(H,38,39)(H,40,41)/b24-13+,27-14-,28-15-
SMILES=C=CC1=C(C)C(/C=c2/[nH]/c(=C\c3[nH]c(/C=C4\N=C(O)C(C)=C4C=C)c(C)c3CCC(=O)O)c(CCC(=O)O)c2C)=NC1=O
IONMODE=positive
INSTRUMENTTYPE=LC-ESI-Orbitrap
INSTRUMENT=Orbitrap
COMMENT=DB#=CCMSLIB00010126687; origin=GNPS
NUM_PEAKS=94
COMPOUND_NAME=biliverdin
PRECURSOR_MZ=582.247
COLLISION_ENERGY=102040
PARENT_MASS=581.2397235480092
92.395699 0.0012358788217227419
101.863998 0.0009106798827306995
104.307999 0.0009119810026525199
140.289001 0.00080797430154963
181.587997 0.000788691888873377
211.087006 0.0013176992443948066
213.102005 0.001048571871059612
225.102005 0.008210302945693145
226.108002 0.0016718582036018429
227.117004 0.006168867792824236
237.100998 0.004629345246405138
238.108994 0.003665614965796454
239.117996 0.005753231886081251
240.123993 0.0036534692168085996
251.117996 0.00654357112941505
252.123001 0.003344330674968589
253.095993 0.011840346223649309
253.132004 0.00861527293033645
254.100006 0.009986597794220299
265.131989 0.0008920731428172554
267.113007 0.0010519838275024431
269.127991 0.0009072511299176323
271.105988 0.004588714138656988
273.122009 0.001486433102387268
279.112 0.0010531341616641073
283.106995 0.001964673932039648
284.11499 0.019727879380147983
285.121002 0.003160223326483317
286.131012 0.009808515984922519
287.140015 0.0010500181052073153
295.106995 0.030818260505374843
296.109985 0.03160184280329471
297.122986 0.02079486248778445
298.126007 0.01090347619712411
299.138 0.019322574340360183
309.122986 0.002960401978947368
315.134003 0.001084562377830518
318.161011 0.0011116515644841547
328.144012 0.0017195588440597515
329.149994 0.0011027391194192379
330.158997 0.004610632329359207
331.166992 0.0009883121160966075
335.13501 0.0011132375139466706
342.15799 0.0033925786157755133
343.164001 0.0014758509440737121
344.175995 0.0030298700789054864
348.141998 0.0009793438285076086
355.161987 0.000817193934999302
356.174011 0.0009921485629484851
357.183014 0.0038103701312299314
386.149994 0.0012663353561915397
388.162994 0.00309399409292196
401.17099 0.0036084991885522825
402.181 0.005011548059472288
403.184998 0.0019545553102889852
416.197998 0.005681697612732095
435.178009 0.017283652101074968
437.196991 0.0009281195466145471
446.171997 0.0019181348596956581
448.187988 0.005145380339969287
449.196014 0.014084880636604775
450.203003 0.036808990646377215
451.210999 0.0015756303006561497
452.221985 0.002981387643110429
460.196014 0.0012353148340639396
462.204987 0.0034241518916655034
463.212006 0.011693982968030155
464.216003 0.021030797152031273
465.227997 0.02472411000977244
477.230011 0.0018987686287309789
478.230011 0.003288817534552562
479.242004 0.029096188747731396
491.203003 0.0013091776969984643
493.178009 0.001002619036213877
494.187988 0.0013399581617199497
495.229004 0.0012896719687840292
504.213989 0.0011203350769789194
505.222992 0.008444171436548933
506.204987 0.0019116961730559821
507.20401 0.0015945609163199777
508.207001 0.006177635069105123
509.21701 0.037088426636883984
520.241028 0.0012249281245846713
521.223999 0.003033991300795756
522.223999 0.001976842148876169
523.231995 0.06327181348596957
537.247009 0.00886868630462097
538.255005 0.05491492391456094
564.232971 0.005086410634538602
565.218018 0.0009608209069384336
567.223022 0.015666452603657684
580.577026 0.0009435655669970683
581.237976 0.0013605975368421051
582.244995 1.0
END IONS

BEGIN IONS
CHARGE=1+
PRECURSORTYPE=M-e
FORMULA=C20H18O7
ONTOLOGY=
INCHIKEY=BYNBJNABVGIMKZ-UHFFFAOYSA-N
INCHI=InChI=1S/C20H18O7/c1-23-16-8-11(9-17(24-2)19(16)25-3)7-15-18(21)13-10-12(20(22)26-4)5-6-14(13)27-15/h5-10H,1-4H3/b15-7+
SMILES=COC(=O)c1ccc2c(c1)C(=O)C(=Cc1cc(OC)c(OC)c(OC)c1)O2
IONMODE=positive
INSTRUMENTTYPE=LC-ESI-Orbitrap
INSTRUMENT=Orbitrap
COMMENT=DB#=CCMSLIB00010104460; origin=GNPS
NUM_PEAKS=58
COMPOUND_NAME="methyl 3-oxo-2-[(3,4,5-trimethoxyphenyl)methylene]benzo[b]furan-5-carboxylate "
PRECURSOR_MZ=370.105
COLLISION_ENERGY=102040
PARENT_MASS=369.09772354800924
53.74892 0.0011278747819536787
54.359631 0.0011071761083733846
60.86581 0.0011790126813873468
76.076424 0.002215975642125616
81.070457 0.006031431138759849
82.40934 0.0016356010691879546
84.081444 0.0017411237188129838
87.522209 0.0011051468266498263
102.091751 0.005160463423008645
116.106911 0.023004749330945817
117.110802 0.004535444652152703
118.665604 0.0011221927931277158
123.116737 0.012098171779509613
124.120583 0.002436761493648754
149.060059 0.00110108826320271
159.754639 0.0011023058322368448
167.069962 0.0014972040556412815
177.054199 0.010446742312877903
179.033585 0.022546943374111072
181.464218 0.0013949282567739453
182.718918 0.0012898114634936277
249.053909 0.0013864052735350007
267.064575 0.016580043394160377
281.044037 0.0017350358736423091
283.263062 0.009710518903570968
284.265808 0.007600877623759805
295.059509 0.049927635813737915
296.067078 0.006154811467552191
297.038849 0.009348089187743464
297.074066 0.004029747646641985
299.093048 0.0013888404116032705
309.0737 0.001716366481785573
310.047058 0.005867871031841053
311.054535 0.0023641132079453685
311.091797 0.0016132789702288136
312.062439 0.03920044676666426
316.21228 0.006156434892931038
317.21402 0.005113384087022094
323.054962 0.022966598834542922
324.062408 0.05799159552681371
324.106598 0.002402669560692975
325.070007 0.028404667997334335
327.085663 0.06642366694454298
328.092377 0.002567041380301194
339.047333 0.0018803324450490802
339.085876 0.022095631118791717
340.057953 0.004890163097430686
340.319641 0.008440188544623499
341.32254 0.0074413760802881255
355.080719 0.3111720887721466
356.084747 0.0018523283572639763
369.094757 0.0027301956308752777
369.80661 0.1603639882041912
370.104156 1.0
370.307678 0.04557807336746315
371.112579 0.035827780542110436
456.353668 0.0014671706861326193
541.426758 0.0023803474617338344
END IONS

BEGIN IONS
CHARGE=1+
PRECURSORTYPE=M-e
FORMULA=C17H14N2O4
ONTOLOGY=
INCHIKEY=QFMIGYKAOSBQJF-UHFFFAOYSA-N
INCHI=InChI=1S/C17H14N2O4/c1-23-16-9-11(2-7-15(16)21)8-12(10-18)17(22)19-13-3-5-14(20)6-4-13/h2-9,20-21H,1H3,(H,19,22)/b12-8-
SMILES=COc1cc(C=C(C#N)C(=O)Nc2ccc(O)cc2)ccc1O
IONMODE=positive
INSTRUMENTTYPE=LC-ESI-Orbitrap
INSTRUMENT=Orbitrap
COMMENT=DB#=CCMSLIB00010109464; origin=GNPS
NUM_PEAKS=18
COMPOUND_NAME=(2Z)-2-cyano-3-(4-hydroxy-3-methoxyphenyl)-N-(4-hydroxyphenyl)prop-2-enamide
PRECURSOR_MZ=310.095
COLLISION_ENERGY=102040
PARENT_MASS=309.08772354800925
51.771339 0.004826628569902666
62.495869 0.005118140023409928
84.959587 0.008059957897735111
104.282143 0.008885536136293844
105.470657 0.005805751009163696
109.052254 0.557875037273411
110.036507 0.007323390790018292
142.028442 0.005714514600050736
145.771271 0.005576547347245773
170.02359 0.5211801985838329
187.049927 0.007853007018527668
202.049744 1.0
211.049942 0.024885286905127486
215.705521 0.0046397051951346515
286.919525 0.007481385547262685
289.692963 0.005525365947011674
309.086609 0.1442536639206733
310.094269 0.9291137606757726
END IONS

BEGIN IONS
CHARGE=1+
PRECURSORTYPE=M-e
FORMULA=C12H10N2
ONTOLOGY=
INCHIKEY=PSFDQSOCUJVVGF-UHFFFAOYSA-N
INCHI=InChI=1S/C12H10N2/c1-8-12-10(6-7-13-8)9-4-2-3-5-11(9)14-12/h2-7,14H,1H3
SMILES=Cc1nccc2c1[nH]c1ccccc12
IONMODE=positive
INSTRUMENTTYPE=LC-ESI-Orbitrap
INSTRUMENT=Orbitrap
COMMENT=DB#=CCMSLIB00010103763; origin=GNPS
NUM_PEAKS=24
COMPOUND_NAME=HARMANE
PRECURSOR_MZ=182.084
COLLISION_ENERGY=102040
PARENT_MASS=181.07672354800926
60.543812 0.0020635820555883495
60.653179 0.002104425809751738
65.781593 0.0022259846019046805
70.509018 0.0019925917209710313
74.68277 0.0019974540726571486
75.025169 0.002171526263020162
92.386177 0.0021919481401018568
96.971367 0.002336846220348164
112.967209 0.0029339430074034165
127.037361 0.002331011398324823
140.950363 0.00416314551365397
158.971054 0.01140999446664378
174.572968 0.0026733209570275083
176.98056 0.14856915576932614
181.57988 0.003977403679244274
182.083847 1.0
182.190475 0.011680341220391926
182.58548 0.15504775315590935
183.091599 0.1378505877124483
194.990479 0.031068482333617618
199.995911 0.03182117437462864
209.917999 0.0021627740299851503
277.84552 0.00225613118235861
285.979401 0.0027151371815281205
END IONS

BEGIN IONS
CHARGE=1+
PRECURSORTYPE=M-e
FORMULA=C12H10N2
ONTOLOGY=
INCHIKEY=PSFDQSOCUJVVGF-UHFFFAOYSA-N
INCHI=InChI=1S/C12H10N2/c1-8-12-10(6-7-13-8)9-4-2-3-5-11(9)14-12/h2-7,14H,1H3
SMILES=Cc1nccc2c1[nH]c1ccccc12
IONMODE=positive
INSTRUMENTTYPE=LC-ESI-Orbitrap
INSTRUMENT=Orbitrap
COMMENT=DB#=CCMSLIB00010103766; origin=GNPS
NUM_PEAKS=32
COMPOUND_NAME=HARMANE
PRECURSOR_MZ=182.084
COLLISION_ENERGY=102040
PARENT_MASS=181.07672354800926
61.01115 0.08751756793522313
69.692261 0.002757302410948013
73.937843 0.00384979186313856
74.266457 0.002634661659540816
79.021698 0.0035241595231953133
84.960091 0.026517185916330815
85.963226 0.00512835693815382
92.357582 0.0037412477498241442
96.97197 0.020681177745919377
102.969566 0.004667396872519873
112.966957 0.03476089987298929
130.977737 0.0031942981918242318
137.065155 0.0028587982052160382
140.951035 0.009957865148740678
140.961823 0.022064057942821215
140.99646 0.014605526727930656
158.972702 0.03324692094182458
159.006653 1.0
163.9767 0.004806953589638407
176.962967 0.00351147254891181
176.980743 0.1443129228110388
181.987045 0.018231182045393993
182.023575 0.03540652589763867
182.083832 0.2117512394469043
182.19017 0.03374312260269048
183.091614 0.26350422687693215
187.956314 0.003557991454617988
194.990936 0.028652826587387173
199.996262 0.03661319811838075
219.608307 0.0031365019756438286
234.532349 0.003679222542215907
306.877228 0.002905317110922216
END IONS

BEGIN IONS
CHARGE=1+
PRECURSORTYPE=M-e
FORMULA=C20H23NO3S
ONTOLOGY=
INCHIKEY=ARKVAMJJCGXVMD-UHFFFAOYSA-N
INCHI=InChI=1S/C20H23NO3S/c1-4-24-20(23)18-13(3)21(10-11-25-5-2)19-15-9-7-6-8-14(15)17(22)12-16(18)19/h6-9,12,22H,4-5,10-11H2,1-3H3
SMILES=CCOC(=O)c1c(C)n(CCSCC)c2c1cc(O)c1ccccc12
IONMODE=positive
INSTRUMENTTYPE=LC-ESI-Orbitrap
INSTRUMENT=Orbitrap
COMMENT=DB#=CCMSLIB00010110498; origin=GNPS
NUM_PEAKS=27
COMPOUND_NAME=ethyl 1-(2-ethylthioethyl)-5-hydroxy-2-methylbenzo[g]indole-3-carboxylate
PRECURSOR_MZ=357.139
COLLISION_ENERGY=102040
PARENT_MASS=356.13172354800923
52.75425 0.00173238979847271
55.05484 0.0021985831775132637
61.011108 0.0664553594502972
74.482117 0.0018014320244447485
74.509804 0.001726689064218138
79.854134 0.0016196419432156195
82.427132 0.002005391627774991
89.042183 0.8774684179322296
90.045853 0.03608564783144069
90.976852 0.00787588108014979
135.152084 0.0016133077940438728
166.340881 0.001682983434933086
202.818298 0.00170388612719985
209.082962 0.013396725498244173
210.091263 0.03230099370132206
220.934357 0.0028750703090558065
223.097122 0.002440547675873986
236.070023 0.002926376917346954
238.098038 0.002992885483650294
238.122665 0.03457368642414476
254.080917 0.016810198486898447
269.104675 0.011065758603041405
279.543732 0.002042763107888296
282.112335 0.08804213982760979
288.92218 0.008445954505606989
316.093201 0.007851177898379977
357.138855 1.0
END IONS

BEGIN IONS
CHARGE=1+
PRECURSORTYPE=M-e
FORMULA=C22H22O6
ONTOLOGY=
INCHIKEY=BETRPSLREOEBMM-UHFFFAOYSA-N
INCHI=InChI=1S/C22H22O6/c1-4-5-10-27-18-8-6-14(11-19(18)25-2)12-20-21(23)16-13-15(22(24)26-3)7-9-17(16)28-20/h6-9,11-13H,4-5,10H2,1-3H3/b20-12+
SMILES=CCCCOc1ccc(C=C2Oc3ccc(C(=O)OC)cc3C2=O)cc1OC
IONMODE=positive
INSTRUMENTTYPE=LC-ESI-Orbitrap
INSTRUMENT=Orbitrap
COMMENT=DB#=CCMSLIB00010103712; origin=GNPS
NUM_PEAKS=33
COMPOUND_NAME=methyl 2-[(4-butoxy-3-methoxyphenyl)methylene]-3-oxobenzo[b]furan-5-carboxylat e
PRECURSOR_MZ=382.141
COLLISION_ENERGY=102040
PARENT_MASS=381.13372354800924
56.649948 0.0014014003587774298
63.818619 0.0014075551576504387
66.742973 0.0019292927236547385
73.954308 0.0015699471586844448
80.357147 0.0011916637510279698
148.051559 0.006892901291702905
157.974976 0.0016153979811312804
179.033585 0.002769186046786887
220.627319 0.0017721086293594323
255.064697 0.002271594230207469
267.06546 0.005076762178098101
279.065643 0.007605437622770483
280.072083 0.00200457064833231
283.059387 0.05400930700278812
294.051636 0.0020481276865105275
295.059814 0.08319773048893249
297.077148 0.002500742126710265
298.082855 0.008182568378631863
300.062622 0.006011344714661157
308.067474 0.0029632989343202475
309.075165 0.14345226456355611
311.054565 0.07671104592284818
312.062714 0.0021338214246654987
315.357971 0.0014406963823512563
315.619751 0.001295821885801968
325.07019 0.24306673743107218
326.077942 1.0
327.085876 0.025130043798495674
359.007629 0.002558502546903118
369.002869 0.0027975928108161597
382.140442 0.6706254648648572
383.148499 0.04623863670258071
633.983887 0.001551482762065418
END IONS

BEGIN IONS
CHARGE=1+
PRECURSORTYPE=M-e
FORMULA=C21H26N2O2
ONTOLOGY=
INCHIKEY=IYLRRIUNGGQRTN-UHFFFAOYSA-N
INCHI=InChI=1S/C21H26N2O2/c1-25-17(24)15-13-19-7-4-11-23-12-10-20(18(19)23)14-5-2-3-6-16(14)22-21(15,20)9-8-19/h2-3,5-6,15,18,22H,4,7-13H2,1H3
SMILES=COC(=O)C1CC23CCCN4CCC5(c6ccccc6NC15CC2)C43
IONMODE=positive
INSTRUMENTTYPE=LC-ESI-Orbitrap
INSTRUMENT=Orbitrap
COMMENT=DB#=CCMSLIB00010109461; origin=GNPS
NUM_PEAKS=23
COMPOUND_NAME=
PRECURSOR_MZ=338.199
COLLISION_ENERGY=102040
PARENT_MASS=337.19172354800924
52.403561 0.000709138330907402
58.065418 0.0017781533613260446
74.163757 0.0006915328520823915
75.069481 0.0006791054552647372
78.434441 0.000729591754836458
89.410133 0.0006539917575290607
121.630707 0.0009038342143839869
122.096992 0.0022982916989649532
123.099854 0.0014550410440670313
134.09639 0.0011065561249719736
135.099945 0.0012085643405168865
166.96965 0.0007171643580188037
185.402008 0.0008357424359872557
220.625061 0.0007326986040408716
252.157867 0.013686965265943703
264.155884 0.0015710300810318054
278.173553 0.001189923245290405
305.164032 0.014999867958908812
306.167358 0.29018644719883885
310.165009 0.0008890766806630223
320.181854 0.00332329303232107
338.193573 1.0
339.206299 0.004375220392115438
END IONS

BEGIN IONS
CHARGE=1+
PRECURSORTYPE=M-e
FORMULA=C17H11NO
ONTOLOGY=
INCHIKEY=UKHKOHUEPNXICX-UHFFFAOYSA-N
INCHI=InChI=1S/C17H11NO/c1-10-6-7-11-9-14-16(18-15(11)8-10)12-4-2-3-5-13(12)17(14)19/h2-9H,1H3
SMILES=Cc1ccc2cc3c(nc2c1)-c1ccccc1C3=O
IONMODE=positive
INSTRUMENTTYPE=LC-ESI-Orbitrap
INSTRUMENT=Orbitrap
COMMENT=DB#=CCMSLIB00010103634; origin=GNPS
NUM_PEAKS=17
COMPOUND_NAME="3-methylindeno[3,2-b]quinolin-10-one "
PRECURSOR_MZ=245.084
COLLISION_ENERGY=102040
PARENT_MASS=244.07672354800926
56.01989 0.02158674156260155
56.39333 0.01883849403463163
57.170151 0.018067870572396824
75.902473 0.01829998607306996
76.134827 0.020017640778051158
92.3731 0.03082493848939232
119.01149 0.01955340977670489
124.145149 0.02253377280534794
137.863129 0.01829998607306996
149.525497 0.019525555916624113
150.560303 0.020788264240285965
245.082672 1.0
246.090912 0.49784132584373986
329.588776 0.023007288426721135
386.361389 0.018615663153985423
482.88385 0.020101202358293487
518.377441 0.02461352769137923
END IONS

BEGIN IONS
CHARGE=1+
PRECURSORTYPE=M-e
FORMULA=C22H18ClNO4
ONTOLOGY=
INCHIKEY=AEYDCLVYMODTOM-UHFFFAOYSA-N
INCHI=InChI=1S/C22H18ClNO4/c23-16-2-6-18(7-3-16)28-19-8-4-17(5-9-19)24-12-11-20(25)15-1-10-21-22(13-15)27-14-26-21/h1-10,13,24H,11-12,14H2
SMILES=O=C(CCNc1ccc(Oc2ccc(Cl)cc2)cc1)c1ccc2c(c1)OCO2
IONMODE=positive
INSTRUMENTTYPE=LC-ESI-Orbitrap
INSTRUMENT=Orbitrap
COMMENT=DB#=CCMSLIB00010104537; origin=GNPS
NUM_PEAKS=25
COMPOUND_NAME="1-(2H-benzo[d]1,3-dioxolen-5-yl)-3-{[4-(4-chlorophenoxy)phenyl]amino}propan-1- one "
PRECURSOR_MZ=395.092
COLLISION_ENERGY=102040
PARENT_MASS=394.0847235480092
61.545559 0.0025799553737448867
65.310081 0.0021560059501673483
67.887573 0.002539047973224247
84.853981 0.0020509483079211603
122.035652 0.003921532168092228
129.118134 0.0022396801785050206
142.339325 0.0023112681294161397
149.023117 0.04599107474897732
150.026733 0.016159352919300856
151.038437 0.003937337300111566
164.046417 0.22330420230568984
177.054993 0.0025641502417255487
210.365463 0.005366307177389364
210.386017 0.0028653774637411675
219.044235 0.03172926738564522
226.810593 0.0026710673112681294
231.044052 0.07740516920788397
231.082352 0.0029871699516548903
232.051804 0.45705373744886574
245.058929 0.016258832279657864
246.067154 0.0033571959836370398
272.044708 0.0023940126441056157
376.071564 0.014472852361472666
395.090698 1.0
771.950073 0.002450725176645593
END IONS

BEGIN IONS
CHARGE=1+
PRECURSORTYPE=M-e
FORMULA=C18H19NO5
ONTOLOGY=
INCHIKEY=BWPNMQBBEJTENG-UHFFFAOYSA-N
INCHI=InChI=1S/C18H19NO5/c1-23-16-8-5-13(11-17(16)24-2)15(20)9-10-19-14-6-3-12(4-7-14)18(21)22/h3-8,11,19H,9-10H2,1-2H3,(H,21,22)
SMILES=COc1ccc(C(=O)CCNc2ccc(C(=O)O)cc2)cc1OC
IONMODE=positive
INSTRUMENTTYPE=LC-ESI-Orbitrap
INSTRUMENT=Orbitrap
COMMENT=DB#=CCMSLIB00010105265; origin=GNPS
NUM_PEAKS=61
COMPOUND_NAME="4-{[3-(3,4-dimethoxyphenyl)-3-oxopropyl]amino}benzoic acid "
PRECURSOR_MZ=329.126
COLLISION_ENERGY=102040
PARENT_MASS=328.1187235480092
55.933262 0.0004537648257546496
59.457661 0.00047569907715064476
73.004807 0.00043782822122474693
73.747093 0.00048529531213639264
73.957779 0.0004717577663529269
97.791481 0.0005552107384611272
98.984306 0.0050726383580019406
125.738876 0.0005702905362958739
131.239243 0.0005159689918229797
137.047485 0.0006182717112246133
150.054657 0.0036191514803391995
174.992081 0.0012631044299990643
176.989349 0.0007428514047003044
180.077988 0.006400688735493834
181.086304 0.002741438701821331
190.050217 0.0008189358392301626
192.063904 0.0006969265658399396
205.0728 0.0008304170489452538
206.077316 0.0027152204169495556
229.104065 0.0015376252951270662
237.075821 0.0005305347056406327
238.08139 0.002641192318488072
241.106644 0.0008626329806831217
243.082642 0.0007149195064382168
251.090073 0.0010189145218795872
253.069138 0.003189891326066013
254.075409 0.0008103677722786021
255.086411 0.0007370251191732432
256.098663 0.0006307810889738917
257.101074 0.0028485395387158386
258.108185 0.002248603490767565
266.076599 0.0011885622475204872
267.049835 0.0008083114362102275
267.085358 0.002443098610567991
268.094879 0.0030139032308809585
269.099792 0.012771560597996237
270.078369 0.001363864897349417
270.108307 0.003665590403216658
271.077789 0.004981302764298304
279.083221 0.005116506860793931
280.059479 0.0011686843321928664
280.092957 0.0008506376869509369
281.064758 0.008696073871816921
282.069305 0.0060802430315054674
283.078979 0.002676664115667533
285.062592 0.0008316165783184723
285.095154 0.0054845910170329745
286.102234 0.0072129414825017795
295.081146 0.0036152101695414818
296.087006 0.03260954873362257
297.094666 0.04869129631768473
298.069336 0.001297548059144338
298.102295 0.019410270233404425
299.073608 0.012496182926173079
301.127136 0.005322140467631385
311.110596 0.007346774688285157
313.090332 0.025499081331861455
314.09726 0.13656419144351709
329.120728 1.0
330.666168 0.0007078936915379372
401.756836 0.0005504126209682533
END IONS

