BEGIN IONS
CHARGE=1+
PRECURSORTYPE=M+2Na]
FORMULA=C20H18O7
ONTOLOGY=
INCHIKEY=BYNBJNABVGIMKZ-UHFFFAOYSA-N
INCHI=InChI=1S/C20H18O7/c1-23-16-8-11(9-17(24-2)19(16)25-3)7-15-18(21)13-10-12(20(22)26-4)5-6-14(13)27-15/h5-10H,1-4H3/b15-7+
SMILES=COC(=O)c1ccc2c(c1)C(=O)C(=Cc1cc(OC)c(OC)c(OC)c1)O2
IONMODE=positive
INSTRUMENTTYPE=LC-ESI-Orbitrap
INSTRUMENT=Orbitrap
COMMENT=DB#=CCMSLIB00010115794; origin=GNPS
NUM_PEAKS=25
COMPOUND_NAME="methyl 3-oxo-2-[(3,4,5-trimethoxyphenyl)methylene]benzo[b]furan-5-carboxylate "
PRECURSOR_MZ=208.042
COLLISION_ENERGY=205060
PARENT_MASS=207.03472354800925
50.701908 0.003715034627887136
56.96534 0.017564646693727176
68.001297 0.003781374531956549
71.952293 0.018763393332376803
73.283531 0.003451217800076214
84.960007 1.0
89.443718 0.0033740783767396867
95.049538 0.006117156270586584
102.970268 0.14946997502225473
111.922997 0.0034111052999412196
119.049278 0.004153186552438608
120.980797 0.04010632898112707
125.986221 0.12334748070357325
138.992661 0.004767216362197363
143.996918 0.23288546184144146
152.071838 0.0046731062657268
157.989563 0.0034249903961417944
162.007797 0.023677174598913567
167.012833 0.06437130598586498
174.984619 0.03566001262000966
184.969513 0.03925008138209162
185.418274 0.003110261548928765
207.986633 0.00536273271035535
209.39505 0.00748406685210984
228.973648 0.003566926935081004
END IONS

