BEGIN IONS
CHARGE=1+
PRECURSORTYPE=M+NH4
FORMULA=C19H19N5O3S
ONTOLOGY=
INCHIKEY=BSVSUGNFDMUUNM-UHFFFAOYSA-N
INCHI=InChI=1S/C19H19N5O3S/c1-10-13(22-18(27-10)12-7-5-6-8-14(12)26-4)9-28-19-23-15-16(24(19)3)20-11(2)21-17(15)25/h5-8H,9H2,1-4H3,(H,20,21,25)
SMILES=COc1ccccc1-c1nc(CSc2nc3c(O)nc(C)nc3n2C)c(C)o1
IONMODE=positive
INSTRUMENTTYPE=LC-ESI-Orbitrap
INSTRUMENT=Orbitrap
COMMENT=DB#=CCMSLIB00010117233; origin=GNPS
NUM_PEAKS=111
COMPOUND_NAME="8-{[2-(2-methoxyphenyl)-5-methyl(1,3-oxazol-4-yl)]methylthio}-2,9-dimethylhydr opurin-6-one "
PRECURSOR_MZ=415.155
COLLISION_ENERGY=205060
PARENT_MASS=414.1477235480092
56.049992 0.0077589753961560745
57.01395 0.00026055737166918113
57.05772 0.0010081095465572195
58.065632 0.0021452351166913177
68.049843 0.0011344880089735442
69.045036 0.0003213335150070496
70.065498 0.0016710914093398398
71.060699 0.0010310058221637294
71.073311 0.0002947895484338162
82.05278 0.0002849127236623805
82.065102 0.0004487221072295439
83.029358 0.0022625785291746814
83.060631 0.08140220832333492
84.037109 0.0006015884178965372
84.068466 0.007782994038213884
85.076279 0.009283878575214153
90.564217 0.00022812098122662532
91.054207 0.00040584770878990267
92.024979 0.0002297484125810096
97.044807 0.0005366034003662955
97.07608 0.01882820228545236
99.091537 0.000533124064367267
103.054482 0.0003929404945999583
107.02903 0.013391122485422144
108.036911 0.003727659576378496
116.990372 0.003348131360871567
117.069527 0.002304779507743543
118.485199 0.0002697607765698371
118.622704 0.00027582155540685445
118.639412 0.00029826888443284464
121.064537 0.00031252293836434844
122.998718 0.0003672944211877645
125.015221 0.00045298709974448206
129.069366 0.0003963637122764218
131.08577 0.0018369771708419073
133.064651 0.00036375896686617105
135.044098 0.001554084706791866
136.046661 0.0003704931655739681
136.056137 0.00048160744425261955
136.088638 0.0002793570097284479
136.807587 0.0002510733751557003
140.026779 0.0004473752674879845
141.070557 0.00037762019253972
142.563477 0.0013935301859334711
143.005829 1.0
143.450775 0.0014847785784241213
144.05661 0.00047060825302988434
145.064407 0.0010568202505436182
145.100983 0.0016883197343672872
147.080429 0.0002805354945023124
148.055984 0.0004889028261860663
156.013443 0.0004410338970381423
159.080261 0.009865432751954993
160.088409 0.00026639367721593857
161.060425 0.0003933894411804781
162.070129 0.0005497350878464998
164.087448 0.0003098292588812296
166.041 0.00033272553448773963
168.057022 0.0005440671372674373
169.088135 0.00032369048455477853
171.042328 0.00034894372970901754
171.080368 0.0004126380258202647
172.033051 0.0005584895461666359
173.058456 0.00047863317315667586
173.096588 0.005427202975258778
174.091125 0.0010293783908093452
175.075119 0.0014255737481180721
177.115082 0.0032480162734156506
180.057922 0.0003419289393883956
184.031799 0.003254301525542928
186.048004 0.014565398385094255
186.066101 0.0005879516655132481
186.09198 0.0002949579034015111
187.076035 0.0036333807944693374
188.065292 0.0003814362384741383
188.083435 0.0021708250717809466
188.104919 0.001789613306597068
189.092255 0.00036084081409279233
193.113083 0.0034617709640656423
200.070877 0.0005728558367432697
200.107635 0.000530991568109798
201.090469 0.0004476558591008094
201.113159 0.00034080657293709607
202.087326 0.0005739220848720042
202.122467 0.009545221603399243
207.067169 0.0009511494491537694
208.076508 0.0005393531981719793
210.090027 0.0003257107441671177
214.084595 0.0004474875041331145
216.101074 0.0015075626173855013
217.10994 0.0019358015368788292
219.082657 0.00044911493548749874
226.086487 0.000553887843716308
227.074203 0.0012505968183604784
228.1017 0.0026951946778280772
229.110092 0.0004977695211513325
229.134338 0.00033098586648822536
230.117233 0.03722019684960716
240.101334 0.0009727550033412849
242.116714 0.0011684957124479193
243.148895 0.00035186188248239627
254.114624 0.0002507366652203104
271.143494 0.01459805924882707
272.15155 0.010165385186064788
297.884918 0.00027037807811805184
301.078369 0.0005398021447524991
370.426117 0.0002652151924420741
395.152679 0.0028848746080976945
412.96933 0.0003103343237843144
415.157593 0.4256060722718695
417.366241 0.00041723972827059267
END IONS

BEGIN IONS
CHARGE=1+
PRECURSORTYPE=M+NH4
FORMULA=C30H36O7
ONTOLOGY=
INCHIKEY=MEDVHSNRBPAIPU-UHFFFAOYSA-N
INCHI=InChI=1S/C30H36O7/c1-17-11-23-28(34,26(17)33)15-21(16-36-19(3)31)12-22-25-27(4,5)29(25,14-18(2)30(22,23)35)37-24(32)13-20-9-7-6-8-10-20/h6-12,18,22-23,25,34-35H,13-16H2,1-5H3/t18-,22+,23-,25-,28-,29+,30-/m1/s1
SMILES=CC(=O)OCC1=CC2C3C(C)(C)C3(OC(=O)Cc3ccccc3)CC(C)C2(O)C2C=C(C)C(=O)C2(O)C1
IONMODE=positive
INSTRUMENTTYPE=LC-ESI-Orbitrap
INSTRUMENT=Orbitrap
COMMENT=DB#=CCMSLIB00010123194; origin=GNPS
NUM_PEAKS=27
COMPOUND_NAME=DOPPA
PRECURSOR_MZ=526.28
COLLISION_ENERGY=205060
PARENT_MASS=525.2727235480093
82.101707 0.02344502836252372
82.395767 0.027299549974667447
105.069344 0.030091097843256077
106.905457 0.02594848054360676
129.070755 0.02468682011901332
143.086136 0.03332969074418096
169.100891 0.050049174953556985
183.11615 0.02878970008245497
185.381577 0.03929029117533106
193.100601 0.03531655755456433
197.095993 0.048807383197067386
197.132355 0.029375825791518064
207.116806 0.036488808972690516
209.09671 0.04268783342108662
211.111267 0.032346191673041196
225.126633 0.037770338065387786
239.178268 0.027438630651394284
240.065491 0.03004142617299649
267.173859 0.10378398784037512
277.158478 0.04785368712808337
290.643921 0.02735915597897895
295.168671 1.0
295.206024 0.04007510356543249
333.571503 0.02607762688628168
355.181427 0.024637148448753737
607.366028 0.030478536871280833
638.420227 0.03108453124844776
END IONS

BEGIN IONS
CHARGE=1+
PRECURSORTYPE=M+NH4
FORMULA=C20H27NO11
ONTOLOGY=
INCHIKEY=XUCIJNAGGSZNQT-UHFFFAOYSA-N
INCHI=InChI=1S/C20H27NO11/c21-6-10(9-4-2-1-3-5-9)30-20-18(28)16(26)14(24)12(32-20)8-29-19-17(27)15(25)13(23)11(7-22)31-19/h1-5,10-20,22-28H,7-8H2
SMILES=N#CC(OC1OC(COC2OC(CO)C(O)C(O)C2O)C(O)C(O)C1O)c1ccccc1
IONMODE=positive
INSTRUMENTTYPE=LC-ESI-Orbitrap
INSTRUMENT=Orbitrap
COMMENT=DB#=CCMSLIB00010122955; origin=GNPS
NUM_PEAKS=45
COMPOUND_NAME=amygdalin
PRECURSOR_MZ=475.192
COLLISION_ENERGY=205060
PARENT_MASS=474.18472354800923
69.033798 0.16418842678276324
71.013924 0.0023922542617223334
71.0494 0.02390656015956886
73.028709 0.03315912454489952
79.054329 0.010192972193720173
81.033661 0.07225221596775379
83.013046 0.004113245301956572
85.028526 1.0
87.044121 0.02613643265152169
91.039017 0.05320240504022784
91.054039 0.0021147987968405876
97.02832 0.2574204952643978
98.541061 0.0022055791563180254
99.044067 0.039135285111062096
101.023262 0.0031996880224265845
103.038803 0.008337728509188316
107.048866 0.02675079832375984
107.252457 0.0020016429966468806
109.028282 0.08161793615327816
115.038651 0.011274664927775273
116.049133 0.004573540082405552
117.053886 0.0024376444414610523
127.038788 0.23988837851574113
134.060806 0.002032329315343479
145.049362 0.5775145999750674
158.060181 0.0125455899604594
163.05983 0.24097262844302095
180.086319 0.016227308905745055
203.274857 0.0019357952711104292
244.555984 0.002288048637815134
251.091064 0.007524541063728451
253.069611 0.0027502613131826508
269.102478 0.002566143401003059
271.079346 0.0034765041890021512
278.101349 0.016329596634733715
289.091736 0.015300326361785304
296.111877 0.042145740834859655
313.138824 0.012956019473026405
325.112 0.0673059649728458
335.495117 0.00211288090192205
458.163452 0.003034109761126188
475.190491 0.0032380459207973326
542.838501 0.0022253974038095787
567.599854 0.0019818247491553273
784.685852 0.002227315298728116
END IONS

