BEGIN IONS
CHARGE=1+
PRECURSORTYPE=M+2H]
FORMULA=C15H26N2
ONTOLOGY=
INCHIKEY=SLRCCWJSBJZJBV-UHFFFAOYSA-N
INCHI=InChI=1S/C15H26N2/c1-3-7-16-11-13-9-12(14(16)5-1)10-17-8-4-2-6-15(13)17/h12-15H,1-11H2/t12?,13?,14-,15?/m1/s1
SMILES=C1CCN2CC3CC(CN4CCCCC34)C2C1
IONMODE=positive
INSTRUMENTTYPE=LC-ESI-Orbitrap
INSTRUMENT=Orbitrap
COMMENT=DB#=CCMSLIB00010119813; origin=GNPS
NUM_PEAKS=109
COMPOUND_NAME="Pachycarpine HI, (+)-Sparteine HI "
PRECURSOR_MZ=118.112
COLLISION_ENERGY=205060
PARENT_MASS=117.10472354800923
56.049858 0.005415389041836485
56.96529 0.01702973834939573
57.07029 0.00525923167326217
58.065559 0.011040998850282672
59.07341 0.00868680470235547
59.93074 0.0009276629413969008
61.01125 0.0008063103355063106
62.049931 0.11668018251617551
62.55162 0.008527166857512782
62.99036 0.003447759791449862
63.998169 0.003937578818285494
67.05481 0.0029755751777073174
67.552361 0.003713668178353526
67.666359 0.0007000397934453351
67.993149 0.006128422613350411
68.049896 0.003133356768540207
68.982933 0.0008970347502352221
69.057869 0.004021342280477661
69.070023 0.0025379632948972736
69.487053 0.004812802583905582
70.065681 0.0025240413898237834
70.42025 0.0006192927440190916
74.096443 0.0007566555407441955
74.975777 0.0015889534323876879
76.933296 0.011371644095778066
76.998611 0.08354279999675156
77.073189 0.00842437679172018
78.492218 0.008217868533130073
79.021538 0.01539507466201675
79.05452 0.0008879855119374536
80.049881 0.0036846642094504212
82.065567 0.0010476233567801418
83.085648 0.0009763896091541166
84.080963 0.013984089582818512
86.003807 0.22669710923242736
87.497437 0.0014548390801797319
88.506538 0.003265150803235915
88.575531 0.0016063558137295508
90.080963 0.6924098933698087
90.482674 0.006908513360968315
90.582817 0.06659357666503084
91.054733 0.0006930788409085899
92.352173 0.0008817206546543829
93.069817 0.0009506340847681597
94.065247 0.004098608853635531
94.943787 0.004253374031702498
95.008949 0.04981675292447019
95.085503 0.00985230018875783
95.583214 0.023220113440323174
96.079712 0.0009283590366505753
97.088799 0.0087515415609472
97.511543 0.00848679333279966
97.994637 0.001654386386233092
98.096458 0.0045315801014210785
98.984383 0.001301466092620114
99.086113 0.017423728262975505
99.488281 0.09244493016424367
99.587334 0.0009668763073538983
100.981712 0.0027558411092973964
103.102669 0.000713033571513926
104.096382 0.0012485628533408513
104.257683 0.0008466838602194325
106.51754 0.0009443692274850891
106.999962 0.02059722652447761
107.98954 0.0036874485904651194
108.080772 0.015563993776908432
108.493507 0.24159749220083276
109.495522 0.0007128015397627011
109.598549 0.004338297652650789
110.09684 0.001098670342049606
110.594147 0.0038514950385810792
110.996201 0.004337833589148339
116.005302 0.04284791130818341
117.498863 0.041110921618514276
117.779991 0.0008109509705308075
117.959198 0.0013708435862363406
118.086578 0.05470148535125546
118.112068 1.0
118.613831 0.13656135905637326
119.084801 0.0009763896091541166
120.001541 0.011699040896756312
123.091637 0.04924711497521321
124.09494 0.0016464973066914476
125.010612 0.002953532161340958
127.512871 0.0015105267004736928
130.124557 0.0007589758582564438
134.096603 0.0026811268854029986
136.111984 0.0029198875574133563
137.107361 0.05779702094434602
138.110672 0.0029871767652685593
138.625259 0.007758909729207345
139.127502 0.0007717376045738098
150.127686 0.01688193412386551
151.130905 0.0008165197325602035
162.040009 0.000690062428142667
162.127914 0.002988104892273459
164.142838 0.005519339266385212
178.159821 0.009068728964871552
179.154099 0.02329575579122247
180.159134 0.0008406510346875867
190.159027 0.008202554437549234
190.203094 0.0009306793541628236
193.169876 0.09259528673903737
194.173462 0.009712385042769252
206.190796 0.002559078184258734
207.185349 0.0036872165587138943
218.190582 0.01413305396710486
219.192459 0.0012163104399205988
220.589203 0.0008012056369793643
END IONS

BEGIN IONS
CHARGE=1+
PRECURSORTYPE=M+2H]
FORMULA=C15H26N2
ONTOLOGY=
INCHIKEY=SLRCCWJSBJZJBV-UHFFFAOYSA-N
INCHI=InChI=1S/C15H26N2/c1-3-7-16-11-13-9-12(14(16)5-1)10-17-8-4-2-6-15(13)17/h12-15H,1-11H2/t12-,13-,14-,15+/m1/s1
SMILES=C1CCN2CC3CC(CN4CCCCC34)C2C1
IONMODE=positive
INSTRUMENTTYPE=LC-ESI-Orbitrap
INSTRUMENT=Orbitrap
COMMENT=DB#=CCMSLIB00010124314; origin=GNPS
NUM_PEAKS=100
COMPOUND_NAME=Pachycarpine
PRECURSOR_MZ=118.112
COLLISION_ENERGY=205060
PARENT_MASS=117.10472354800923
56.050171 0.007362523187697917
56.96524 0.06949541869283174
57.070271 0.002862622248289652
58.065578 0.02425840233246827
58.98843 0.002111984893096294
59.073341 0.02409232054830528
60.48177 0.002548113042847139
61.011391 0.005607548744022854
62.049889 0.10816435819525333
62.55162 0.0030607434317596756
62.990429 0.008923953504946817
63.998009 0.016130202887861447
67.05468 0.002132908582439663
67.993149 0.03161438686724639
68.050148 0.002106753970760452
69.057587 0.0021348701783156037
69.070427 0.0018811704450272563
69.48674 0.016194935551767497
72.080879 0.0018112068587853667
73.941017 0.001923017823713994
73.945427 0.0016948188368128775
74.096893 0.00203155946218272
74.975693 0.012167125353168991
76.933243 0.024814187830651504
76.998543 0.307783547049204
77.07328 0.004242931879660016
77.988091 0.003888536891406706
78.013573 0.002841698558946283
78.492058 0.04522982384215169
79.021423 0.06282795431050886
80.049843 0.0017811290553542741
82.374741 0.0021479474841552093
82.387077 0.0021263699295198603
84.080887 0.012751027058907379
86.003754 0.9630154174897196
87.006172 0.0035851433959278576
87.497368 0.011814038095499642
88.506538 0.008865759493960573
89.980026 0.002194371919885809
90.080887 0.6757495094375647
90.482841 0.028250903805299838
90.487823 0.0017144347955722857
90.582741 0.05547654683277461
91.976677 0.007210826439958492
94.065277 0.0019733654511964755
94.943527 0.009949214282771892
95.008904 0.2795097579586849
95.08551 0.00876441037370363
95.583214 0.02052744697642881
97.088783 0.010822778312857542
97.511436 0.040146021197005034
97.994904 0.007387370068793167
98.984253 0.007071553132766694
99.085983 0.022048337645574935
99.48819 0.3359487945012544
100.98188 0.003821188766332738
104.014183 0.0072618279327329545
104.270248 0.0020335210580586607
104.277321 0.0018183993769971497
106.516747 0.004380243590975874
106.99987 0.08353129105048036
107.027191 0.004307664543566064
107.989578 0.01419737708476775
108.080727 0.013168193115190794
108.493423 1.0
109.598824 0.0021414088312354065
109.986961 0.003718531915491834
110.996078 0.013433008558442807
116.00518 0.18597759726736618
116.972122 0.0028658915747495533
117.498711 0.17950629247263739
117.959457 0.0022094108216013553
118.086319 0.09488631571100985
118.111977 0.9059780942049881
118.61377 0.12532047572623184
118.623611 0.003636144888702319
120.001404 0.047209074080975987
120.511719 0.0024179938497430635
123.091537 0.04154006199950699
125.010948 0.013011919310407509
127.513428 0.010386650163106697
129.007065 0.003009088073693234
129.517151 0.007115362107329372
137.107208 0.05239226425050364
137.118439 0.0023186063253620615
138.625381 0.007484795997298228
150.128021 0.010112680605766962
162.126907 0.006159411050454208
164.144043 0.0028312367142745987
178.158783 0.007621453843322107
179.15419 0.023662731051474237
180.15683 0.0017026652203166407
190.159286 0.0037263782989955976
193.169724 0.08827246828262934
194.173599 0.010144066139782014
206.191223 0.0018268996257928933
207.185425 0.0026631933342356673
214.910538 0.0018883629632390395
218.191254 0.012620254000511323
229.318375 0.0017353584849156547
END IONS

BEGIN IONS
CHARGE=1+
PRECURSORTYPE=M+2H]
FORMULA=C15H26N2
ONTOLOGY=
INCHIKEY=SLRCCWJSBJZJBV-UHFFFAOYSA-N
INCHI=InChI=1S/C15H26N2/c1-3-7-16-11-13-9-12(14(16)5-1)10-17-8-4-2-6-15(13)17/h12-15H,1-11H2/t12-,13-,14-,15+/m0/s1
SMILES=C1CCN2CC3CC(CN4CCCCC34)C2C1
IONMODE=positive
INSTRUMENTTYPE=LC-ESI-Orbitrap
INSTRUMENT=Orbitrap
COMMENT=DB#=CCMSLIB00010124395; origin=GNPS
NUM_PEAKS=81
COMPOUND_NAME=lupinidine
PRECURSOR_MZ=118.112
COLLISION_ENERGY=205060
PARENT_MASS=117.10472354800923
53.467258 0.0005749119166255399
55.934891 0.0010672566962889013
56.049919 0.005560461491487117
56.302181 0.0006464230551910735
57.07045 0.005267830384988683
58.065559 0.014548047251925744
58.76342 0.0006351318227859892
59.07333 0.011729708596815026
59.930729 0.0007957966505500007
62.049858 0.10524440107774813
62.548458 0.001145354387090734
62.551472 0.005162210315199457
67.054588 0.0016040607035472819
67.552193 0.003308801562706565
68.049843 0.002714365223380567
69.057663 0.004408755786168523
69.07032 0.002685901908359417
70.065567 0.003085329254689272
72.937233 0.0011606445976392857
76.933144 0.013234030080784063
77.073097 0.008499945660944051
79.054367 0.0009381132256557501
80.049751 0.0030117010100477854
81.567749 0.0015544263277665988
82.064934 0.0024017392261647965
83.07309 0.001003508280001863
84.080818 0.014453483180533163
90.080849 0.7080654214005551
90.582603 0.06483096319387563
90.947517 0.0007986194586512717
93.069771 0.001361769674854849
94.064911 0.0033323249635504905
94.943604 0.0049620261740176514
95.085381 0.008823157188539587
95.583214 0.02397152163000231
96.085152 0.0012987269605931285
97.08857 0.0093056221398485
97.558693 0.000924234419157834
98.096603 0.004781131221527864
99.086029 0.026843964107054058
99.587692 0.0013829407356143817
103.245262 0.0006694759880181205
104.096199 0.0008626031089467492
104.291924 0.0007558068691153273
105.06955 0.0008395501761197022
108.08049 0.014433958757832705
109.598709 0.003726106693677804
110.096313 0.0016374639327456561
110.593933 0.0032252934897106294
117.780647 0.0008110868610985522
117.958763 0.001470447786753785
118.086311 0.06830583996654031
118.111908 1.0
118.61364 0.14390111138659628
123.091423 0.06138878394838401
124.094353 0.002839039247853372
134.09613 0.0015457226694543466
136.112289 0.0035499164213568016
137.107178 0.06131915468188599
138.110397 0.003237290424141031
138.624695 0.004992371361106315
150.114227 0.0011507647692848369
150.127289 0.015912169266864985
162.12709 0.005298175572077347
164.143326 0.004921095456549221
165.467972 0.0007101714714781118
167.154266 0.0006854719005919899
178.158859 0.007586767240182862
179.135956 0.0008706010652336838
179.153809 0.026082276387727747
180.157715 0.0010493789116475178
190.158768 0.008745765199763071
191.163086 0.0008861265097906746
192.174408 0.0006666531799168494
193.169601 0.09080056249156097
194.173294 0.009123786251324956
206.189667 0.0014756229349394483
207.185593 0.0039707500624546295
211.72908 0.0010630224841369947
218.189697 0.01602202354880612
219.192657 0.0011098340518164065
END IONS

BEGIN IONS
CHARGE=1+
PRECURSORTYPE=M+2H]
FORMULA=C36H38N4O2
ONTOLOGY=
INCHIKEY=RVNQGBQBTQGUTJ-UHFFFAOYSA-N
INCHI=InChI=1S/C36H38N4O2/c41-35(31-13-9-27(10-14-31)23-39-21-17-29-5-1-3-7-33(29)25-39)37-19-20-38-36(42)32-15-11-28(12-16-32)24-40-22-18-30-6-2-4-8-34(30)26-40/h1-16H,17-26H2,(H,37,41)(H,38,42)
SMILES=O=C(NCCNC(=O)c1ccc(CN2CCc3ccccc3C2)cc1)c1ccc(CN2CCc3ccccc3C2)cc1
IONMODE=positive
INSTRUMENTTYPE=LC-ESI-Orbitrap
INSTRUMENT=Orbitrap
COMMENT=DB#=CCMSLIB00010114952; origin=GNPS
NUM_PEAKS=207
COMPOUND_NAME="[4-(2-1,2,3,4-tetrahydroisoquinolylmethyl)phenyl]-N-(2-{[4-(2-1,2,3,4-tetrahyd roisoquinolylmethyl)phenyl]carbonylamino}ethyl)carboxamide "
PRECURSOR_MZ=280.157
COLLISION_ENERGY=205060
PARENT_MASS=279.1497235480092
57.0452 0.001316396636427811
58.053051 0.013774162464773997
59.060822 0.0007153186233169349
63.023731 0.00042599828741779873
65.03904 0.003256931022322447
66.046799 0.012885693540398355
66.050613 0.0006272808444357198
67.054626 0.0008097359513924409
68.026123 0.0006021983241888979
69.186417 0.0002908452037553325
73.534073 0.0004589229852107735
77.038887 0.00048487685851827906
79.05452 0.004683522701174571
85.039917 0.015427492657916871
85.045509 0.0007126734443827166
87.055573 0.009101251599088466
89.038963 0.001328937896551222
90.046097 0.003671446121190522
91.054413 0.06882792930538348
92.057709 0.0019765088194000037
92.162003 0.00034113472325764555
93.033096 0.00043956649936272973
93.06974 0.0014701904516384737
94.041588 0.0014505538880209244
95.049088 0.0004571180395850716
95.054916 0.002446914993160501
100.978859 0.0003573481141367947
102.560257 0.0003697960150037039
103.054077 0.004542674702865494
104.049599 0.0005001877765845773
104.062057 0.008125273931618453
105.033577 0.021287622068783863
105.069931 0.13929397124510004
106.065163 0.173548727245704
107.049339 0.0058829090694534365
107.06842 0.005175588222443491
109.064774 0.0006740227121909638
115.054199 0.015184820830516477
116.049377 0.002011113983810011
116.061684 0.0016495958228828018
117.057358 0.012772853319039823
117.069817 0.039685432831562596
118.041298 0.21226546443180375
118.06485 0.01328548899649131
119.049339 0.10462936810845308
119.073479 0.0038551771379861013
119.08548 0.04884173527223497
120.051804 0.0031518396192535664
120.080681 0.008199961336819907
120.089127 0.0014171935136976079
121.064377 0.0003551697314850856
122.036247 0.00622258116435922
125.564987 0.005134945826113032
128.061462 0.0003710408050903948
129.06987 0.001388594461455884
130.065125 0.05341279118907702
131.049301 0.006283202441581068
131.073395 0.0038776455990508726
131.494705 0.0003493192180776383
132.044601 0.0071206349724023815
132.08078 0.40013805344456443
132.572739 0.0003814970418185985
133.070358 0.07093560788016853
133.086716 0.015791002482982788
133.57222 0.005008786350826908
134.059967 0.14050860629194087
134.096405 0.02077632454067557
135.044739 0.00064747756359228
135.063766 0.004802057837179714
138.062073 0.000616917966964018
142.065155 0.009890666352315676
144.044327 0.0022873329040467255
144.08078 0.0029000185847159942
144.584122 0.0003802833714840748
145.088577 0.03373813699487507
146.047882 0.0006704439406917274
146.060013 0.014200254111448297
146.096375 0.008174443140042743
147.067825 0.39291711951092695
147.569366 0.03044112373176118
147.583588 0.045881313248562296
148.075165 0.015320627428974457
149.107254 0.0017727366822087008
152.062057 0.0020519742184056406
152.575699 0.0016976758399812385
153.069748 0.0017453201805493334
153.58345 0.005462294499160576
154.591629 0.002965774621045442
157.076355 0.0007146028690170876
158.060165 0.002013261246709553
158.083755 0.01766434932394828
159.068542 0.0031688310039368977
159.09166 0.0034332555381022156
160.075607 0.05628557999064665
160.099838 0.0016949684215426858
161.083374 0.010750971900979936
161.106384 0.004403040374890941
161.58107 0.09724079206989049
162.082428 0.005932296116142898
162.093307 0.002915951897825638
163.085983 0.005051109213774399
165.069733 0.007930059726273149
166.076691 0.001523623066109681
167.084579 0.0026765476444028076
167.581146 0.021531320848005776
168.082047 0.001894321553926236
168.587692 0.0004732069514555517
175.08638 0.0071506655332437994
176.094437 0.0037935911484470682
177.102463 0.00392217796440224
178.077606 0.026274437874580676
179.084885 0.004276414103322307
180.092529 0.002518894979923403
181.101044 0.0006418137686978363
182.093872 0.0030625570502856607
185.10228 0.0036349426518983113
185.603333 0.00041034505207766044
187.086197 0.0018261692966799084
188.09462 0.0003847646157961621
189.102249 0.0094521890442788
190.077362 0.0014512074028164373
190.097412 0.0005590974674372249
191.085236 0.0014796197365451573
191.10202 0.0005940138293689052
192.091522 0.0004240999825355951
192.110413 0.0004713708860776826
193.101303 0.005421029707786772
194.107635 0.0006702572221787237
195.0793 0.0006315753702348035
195.116699 0.007168714989500818
195.568481 0.00035694355735862017
196.087723 0.004352315178858286
199.099319 0.0036256378460002964
199.614914 0.052700460061968143
200.116333 0.005954920175968506
203.08223 0.005373634325236016
204.607819 0.0024925676695898903
205.064911 0.0006691369111007019
205.101105 0.002159119525117561
208.088287 0.0014124633113681824
209.095688 0.008104143619896875
209.1194 0.0023168033093491328
210.068085 0.0023302159225332274
210.100082 0.00047747035750246813
212.080841 0.0005264217276615883
213.10498 0.0004787462673413263
213.612274 0.18919340465399628
214.113739 0.026139720467448554
214.137177 0.0005328323966080465
219.08017 0.001982608290824789
220.112 0.004745917804269953
221.095901 0.07327304358520458
222.099442 0.005872577311733902
222.127258 0.004641635514757422
223.111404 0.0006248223840145053
223.135101 0.0015167456008807138
224.107346 0.0012428917818087123
226.097794 0.001864913388128163
228.125427 0.03613298864265973
228.627304 0.004705306527691662
232.112457 0.0005862961308314215
233.094864 0.0036511871625296275
234.125198 0.009297306037742285
234.626114 0.0017317830883565697
236.106796 0.0008176403684429282
237.090424 0.0012704327624767488
237.150742 0.001508561106060721
238.12291 0.0080866231994267
242.117599 0.00044261623507512246
248.105804 0.0015785805484370852
249.137634 0.0033534333737931603
250.122314 0.0921820585168351
251.126114 0.008971139915277097
252.10202 0.001365908162125942
253.110092 0.0007224450465632404
255.125153 0.021633860431396944
256.13028 0.0022938680520018526
264.137939 0.004916547405403111
265.136536 0.0005913686504346869
265.642731 0.005682062188965857
266.143494 0.0005405812148976976
267.148865 0.05440778302512123
268.131592 0.03599161160856381
269.135742 0.0029021036081112016
270.113831 0.0005459338122704685
277.134247 0.00044513693500067156
279.149231 0.007276669409769088
279.652313 0.00350486208783911
280.156708 1.0
280.658173 0.19492964633148535
280.730438 0.0015972523997374488
291.147247 0.0006361499738033927
292.180389 0.002379851927240028
293.164246 0.08425498628677001
294.165466 0.007894738807563294
295.14325 0.0014803666105971719
308.138367 0.0021030728514643024
308.174805 0.004559603848044491
310.191071 0.01983317821174203
311.138794 0.0007172169281991385
311.19281 0.001618600549724198
336.170929 0.00044666180285686795
372.993317 0.0003154609277196454
428.232788 0.00645149806130168
429.233002 0.0008035742404633208
441.226379 0.001642064842858322
455.237732 0.0006465128512750945
END IONS

BEGIN IONS
CHARGE=1+
PRECURSORTYPE=M+2H]
FORMULA=C18H25N5O4S
ONTOLOGY=
INCHIKEY=HRBPBWKDJGGGCX-UHFFFAOYSA-N
INCHI=InChI=1S/C18H25N5O4S/c1-23(2)15-9-3-7-13-12(15)6-4-10-16(13)28(26,27)22-14(17(24)25)8-5-11-21-18(19)20/h3-4,6-7,9-10,14,22H,5,8,11H2,1-2H3,(H,24,25)(H4,19,20,21)
SMILES=CN(C)c1cccc2c(S(=O)(=O)NC(CCCNC(=N)N)C(=O)O)cccc12
IONMODE=positive
INSTRUMENTTYPE=LC-ESI-Orbitrap
INSTRUMENT=Orbitrap
COMMENT=DB#=CCMSLIB00010115201; origin=GNPS
NUM_PEAKS=142
COMPOUND_NAME=5-(amidinoamino)-2-({[5-(dimethylamino)naphthyl]sulfonyl}amino)pentanoic acid
PRECURSOR_MZ=204.589
COLLISION_ENERGY=205060
PARENT_MASS=203.58172354800925
55.441399 0.0006372836705463943
58.029228 0.0014633989957269194
58.065609 0.0061024683206639466
59.044868 0.0009593537547015654
59.048222 0.03359665373259399
60.056068 0.04082914700905669
68.049713 0.00848426739525912
69.05764 0.0027507527785957187
69.913696 0.0007838644740945763
70.065483 1.0
70.217583 0.0008959774780726422
71.049461 0.02318589577641591
71.068764 0.02222135332070379
72.056023 0.010939449527003575
72.081123 0.0014698848719901132
73.063751 0.08913521217432331
75.941162 0.0007744136258253509
83.06076 0.0008961627888230191
84.959869 0.026667143532997636
85.063637 0.008749817700549316
85.075867 0.004962065962844083
86.059563 0.0006726780238683952
86.071472 0.02647571752785823
87.079247 0.04346834271592548
88.075729 0.002816352784229166
91.054169 0.0026069516363031913
95.060097 0.0009576859579481726
97.076477 0.0006956565569151393
99.043907 0.004460244450823252
99.554878 0.0014804475847616004
100.086861 0.004597559716852586
101.094727 0.011342500409073482
102.970177 0.0031323076136218968
103.054253 0.00581431010382776
105.052841 0.004787317925238601
105.070137 0.0015721764061981999
110.071381 0.0013614780830195868
112.0868 0.08649898143946055
113.090408 0.0017328408267750315
114.054863 0.052183321995403924
115.054062 0.05204545079712346
116.070198 0.007588104606436102
117.057159 0.013314021482334048
117.06971 0.0010699842726766156
118.065247 0.0064306536595815575
119.068916 0.024663378389171476
127.053757 0.0010077198605499542
127.097473 0.007477659399211429
128.05072 0.0013231187576915543
128.061844 0.03730490715838751
129.069855 0.027087798936353356
129.113525 0.000909134541349407
130.064713 0.007013270658766745
130.074417 0.0009578712686985496
130.097366 0.03166497447066447
131.049118 0.025041412319940493
131.073059 0.007329596109660231
132.043762 0.0007204881974656531
132.056625 0.0028591595675662453
132.080704 0.042950769790122606
133.065094 0.002759647694613813
133.084442 0.023231852842509396
141.057449 0.001302178642898957
142.052155 0.0007595887657951935
142.065063 0.02174936683949365
143.071838 0.0013205244071862767
144.080231 0.01026732743538631
144.549866 0.015334464593694135
145.051758 0.007833456039935209
145.064194 0.0019730035592635826
145.088211 0.0017020792422124547
146.060089 0.007937600681647065
146.096802 0.006794418662571546
147.0439 0.027101326621130874
152.0616 0.029873946068271075
152.562836 0.0014213334553913476
154.064896 0.010883856301890484
155.072754 0.011075838239281023
156.080597 0.1742571494277326
157.075592 0.012190667713548866
157.087997 0.043606399224956315
157.987961 0.001020135680825211
158.059906 0.0011567097038530367
158.079544 0.0011233537687851823
158.093018 0.008580258363954391
159.067825 0.004072759671785012
160.075455 0.10558728590354094
161.059433 0.0016846600316770197
161.081329 0.007243241299984563
162.973251 0.0016335142645729763
168.080276 0.0012243481277406302
170.095963 0.018676173355242007
171.088242 0.005991837802688896
171.105331 0.014237610262212859
171.491745 0.0010145763583139019
172.075455 0.7780368216167214
172.661774 0.0008155526124090379
173.047897 0.0027550149258543893
173.079025 0.047167145293449765
173.104202 0.0037810805506916633
174.074142 0.012446211238318705
174.091064 0.04923780761816201
175.098145 0.007324222097899299
175.118637 0.010081090131257457
176.065323 0.0017193131419975128
180.983704 0.007442450356639804
181.585739 0.03649546980074091
182.086945 0.0029227211549455456
183.577988 0.012841293758122402
184.076065 0.001488971879278941
186.091705 0.008164791661609227
187.0616 0.002421270264425469
187.098541 0.002814499676725396
188.053757 0.0008626215430047879
188.070221 0.034135166773189465
189.078064 0.05688039358520894
190.081635 0.0033965607436594538
192.047592 0.005065098740053677
196.572845 0.002848226233294004
197.076675 0.3913229353000487
197.57811 0.042687257903086556
198.116013 0.000903019286586967
202.086227 0.007712448119939048
203.093719 0.06488822704124887
204.048523 0.0009130260671073233
204.098206 0.005784845694517822
204.588409 0.7913695594848436
205.089859 0.0933899470029785
205.348801 0.0009649130772128744
220.04277 0.003400637580167747
221.049866 0.007961320457695317
225.100739 0.0034545630085274447
234.058289 0.0036800861917362154
236.059372 0.046807271816217695
237.042404 0.006233112399679709
237.068085 0.0010114260755574936
247.053574 0.0013044023719034805
251.084549 0.028331604692883566
252.066376 0.0049370490115431915
303.115509 0.0011922893679254145
349.120697 0.011366961428123242
350.124878 0.0007403164477559887
END IONS

BEGIN IONS
CHARGE=1+
PRECURSORTYPE=M+2H]
FORMULA=C22H18N4O2
ONTOLOGY=
INCHIKEY=BXYRCDZUINXBPI-UHFFFAOYSA-N
INCHI=InChI=1S/C22H18N4O2/c27-22(17-9-6-12-23-15-17)28-14-13-24-21-18-10-4-5-11-19(18)25-20(26-21)16-7-2-1-3-8-16/h1-12,15H,13-14H2,(H,24,25,26)
SMILES=O=C(OCCN=c1[nH]c(-c2ccccc2)nc2ccccc12)c1cccnc1
IONMODE=positive
INSTRUMENTTYPE=LC-ESI-Orbitrap
INSTRUMENT=Orbitrap
COMMENT=DB#=CCMSLIB00010116130; origin=GNPS
NUM_PEAKS=56
COMPOUND_NAME=2-[(2-phenylquinazolin-4-yl)amino]ethyl pyridine-3-carboxylate
PRECURSOR_MZ=186.079
COLLISION_ENERGY=205060
PARENT_MASS=185.07172354800926
53.039082 0.0008325419023754519
62.501122 0.000552190615693442
66.745087 0.0005654113159051906
68.049858 0.0035688646352426924
71.296333 0.0005498362444228567
72.93737 0.0005487496115287404
73.732071 0.0005172372575993671
74.096733 0.000589679450540455
76.742393 0.0004915202791052809
78.03405 0.014037304831676943
80.049713 0.0907630046413713
81.053001 0.0010674357129869293
87.620842 0.00046109455807002406
96.044434 0.06304535388373463
97.04792 0.001159256192539758
103.053993 0.0011916740738808949
104.049393 0.0011701225214809212
106.028214 0.0006916418371050361
116.049469 0.001302691734563112
117.05751 0.0010956881682339535
118.659271 0.0007669817177637675
119.060623 0.0008278331598342813
119.28833 0.0004900714352464592
123.393806 0.0006327825553404023
124.039238 1.0
124.398064 0.0007919742743284428
124.563004 0.005071496822323207
125.042686 0.032972607433583184
129.04454 0.006232020753239434
140.034134 0.00411145666037144
143.060287 0.007568217002037799
146.071365 0.0028496947648200426
147.054901 0.0007687927725872946
161.070984 0.005805698447781132
164.447556 0.0005913093998816295
170.07074 0.0012224620058808573
180.081299 0.0029887837752669314
186.078506 0.012031199403655869
186.580292 0.0024489083323734743
188.080948 0.0051470178084642906
204.081085 0.000807368240328424
205.075775 0.20333563699506885
206.079361 0.01777097545586061
207.091599 0.02301035706032479
208.0952 0.0024650267203028663
212.33168 0.000766619506799062
219.090912 0.0007466979037402629
220.09906 0.012916261895913609
221.10701 0.1392956518022531
222.110275 0.01256672831497286
233.094116 0.0025689812671733274
246.101791 0.001171571365339743
247.109253 0.0013534012696218734
248.117844 0.6465579816445971
249.120819 0.06293125742985241
306.929016 0.0005572615691993182
END IONS

