BEGIN IONS
CHARGE=1+
PRECURSORTYPE=M+K
FORMULA=C13H16N2O2
ONTOLOGY=
INCHIKEY=DRLFMBDRBRZALE-UHFFFAOYSA-N
INCHI=InChI=1S/C13H16N2O2/c1-9(16)14-6-5-10-8-15-13-4-3-11(17-2)7-12(10)13/h3-4,7-8,15H,5-6H2,1-2H3,(H,14,16)
SMILES=CC(=O)NCCC1=CNC2=C1C=C(C=C2)OC
IONMODE=positive
INSTRUMENTTYPE=LC-ESI-Orbitrap
INSTRUMENT=Orbitrap
COMMENT=DB#=CCMSLIB00010102240; origin=GNPS
NUM_PEAKS=21
COMPOUND_NAME=tryptamine
PRECURSOR_MZ=271.084
COLLISION_ENERGY=205060
PARENT_MASS=270.0767235480092
55.054585 0.01786973949487594
56.965324 0.01078080124640839
57.070229 0.04545311223634091
58.890285 0.011127534595589442
66.696022 0.013488717019341115
69.07 0.02495311607909893
71.085686 0.015137853846824489
72.93705 0.024784614837938267
74.962219 0.011420479070244904
85.979424 0.012839500247437656
93.055397 0.012161233793774356
103.075432 0.01767876292461901
107.492218 0.011626245905152452
113.963539 0.02225802071033319
163.78772 0.01250224867745775
171.914032 0.011355225489820977
180.888641 0.03799148375912054
247.894257 0.027601849551632935
271.104614 1.0
271.261292 0.12358879781594193
278.526642 0.011201902442033
END IONS

BEGIN IONS
CHARGE=1+
PRECURSORTYPE=M+K
FORMULA=C25H18ClNO5
ONTOLOGY=
INCHIKEY=UJGYSWQBRBNTIA-UHFFFAOYSA-N
INCHI=InChI=1S/C25H18ClNO5/c1-29-23-13-16(12-18(14-27)17-7-9-19(26)10-8-17)6-11-22(23)32-25(28)24-15-30-20-4-2-3-5-21(20)31-24/h2-13,24H,15H2,1H3/b18-12+
SMILES=COc1cc(C=C(C#N)c2ccc(Cl)cc2)ccc1OC(=O)C1COc2ccccc2O1
IONMODE=positive
INSTRUMENTTYPE=LC-ESI-Orbitrap
INSTRUMENT=Orbitrap
COMMENT=DB#=CCMSLIB00010126024; origin=GNPS
NUM_PEAKS=5
COMPOUND_NAME="4-[(1Z)-2-(4-chlorophenyl)-2-cyanovinyl]-2-methoxyphenyl 2H,3H-benzo[e]1,4-dio xane-2-carboxylate "
PRECURSOR_MZ=486.051
COLLISION_ENERGY=205060
PARENT_MASS=485.0437235480092
50.444382 0.8233269598470363
73.94268 0.904397705544933
92.362938 0.9636711281070746
100.282089 0.9449330783938814
463.52832 1.0
END IONS

BEGIN IONS
CHARGE=1+
PRECURSORTYPE=M+K
FORMULA=C12H11N5O
ONTOLOGY=
INCHIKEY=BUDWTFCZGZYQHZ-UHFFFAOYSA-N
INCHI=InChI=1S/C12H11N5O/c18-9-3-1-2-8(4-9)5-13-11-10-12(15-6-14-10)17-7-16-11/h1-4,6-7,18H,5H2,(H2,13,14,15,16,17)
SMILES=C1=CC(=CC(=C1)O)CNC2=NC=NC3=C2NC=N3
IONMODE=positive
INSTRUMENTTYPE=LC-ESI-Orbitrap
INSTRUMENT=Orbitrap
COMMENT=DB#=CCMSLIB00010102075; origin=GNPS
NUM_PEAKS=7
COMPOUND_NAME=meta-topolin
PRECURSOR_MZ=280.06
COLLISION_ENERGY=205060
PARENT_MASS=279.0527235480092
64.310417 0.29658033149434193
189.053665 0.3964151596630684
192.020325 0.3701541047191825
250.350952 0.2938720662267998
272.645905 0.27786354359697474
280.058105 1.0
298.059265 0.5589791180498425
END IONS

