BEGIN IONS
CHARGE=1+
PRECURSORTYPE=M-e
FORMULA=C17H15ClO2
ONTOLOGY=
INCHIKEY=GGOYJPNYLCAKIL-UHFFFAOYSA-N
INCHI=InChI=1S/C17H15ClO2/c1-2-20-16-10-3-13(4-11-16)5-12-17(19)14-6-8-15(18)9-7-14/h3-12H,2H2,1H3/b12-5+
SMILES=CCOc1ccc(C=CC(=O)c2ccc(Cl)cc2)cc1
IONMODE=positive
INSTRUMENTTYPE=LC-ESI-Orbitrap
INSTRUMENT=Orbitrap
COMMENT=DB#=CCMSLIB00010115595; origin=GNPS
NUM_PEAKS=39
COMPOUND_NAME=(2E)-1-(4-chlorophenyl)-3-(4-ethoxyphenyl)prop-2-en-1-one
PRECURSOR_MZ=286.076
COLLISION_ENERGY=205060
PARENT_MASS=285.06872354800925
51.72538 0.004933551081078438
62.635311 0.006199943281275976
66.732292 0.005187807430152847
73.943024 0.006938264602626663
75.9758 0.005114464252535229
78.25061 0.005750105125221252
92.363113 0.006867366197596299
94.041443 0.27824690247313194
98.522987 0.0055765262715262226
119.048538 0.042998660264622186
122.072601 0.08607799802462375
136.007446 0.011065040729911303
136.191345 0.00821688066576047
138.994949 0.04348761478207297
147.044067 0.1781896947945902
152.062103 0.009593287632384435
164.002701 0.007977292952209586
165.069824 0.025452527405900705
166.077209 0.04451441926871962
167.08606 0.04902257991961588
175.075226 0.0641361640540197
177.069412 0.024173911342766898
178.076675 0.007945510908575284
194.072723 0.06120977126707674
195.080887 0.06139068443853353
205.063446 0.007789045462991032
222.066772 0.013849636706793534
223.075211 0.4841676527249435
229.041306 0.2812661966183906
230.049072 0.008903861762778827
241.041229 0.44715379575391895
251.106583 0.24110836210015743
257.036041 1.0
258.042358 0.12921845509930666
258.076904 0.011302183670874936
285.067291 0.309373747054049
286.074707 0.45440010170253964
287.083862 0.02538651854604485
295.270966 0.006906482558992362
END IONS

BEGIN IONS
CHARGE=1+
PRECURSORTYPE=M-e
FORMULA=C25H23FN2O
ONTOLOGY=
INCHIKEY=MAPYRMBCXVPHDO-UHFFFAOYSA-N
INCHI=InChI=1S/C25H23FN2O/c1-29-20-12-8-18(9-13-20)25-24-22(21-4-2-3-5-23(21)27-24)14-15-28(25)16-17-6-10-19(26)11-7-17/h2-13,25,27H,14-16H2,1H3
SMILES=COc1ccc(C2c3[nH]c4ccccc4c3CCN2Cc2ccc(F)cc2)cc1
IONMODE=positive
INSTRUMENTTYPE=LC-ESI-Orbitrap
INSTRUMENT=Orbitrap
COMMENT=DB#=CCMSLIB00010115326; origin=GNPS
NUM_PEAKS=54
COMPOUND_NAME="1-{2-[(4-fluorophenyl)methyl](1,2,3,4-tetrahydrobeta-carbolinyl)}-4-methoxyben zene "
PRECURSOR_MZ=386.179
COLLISION_ENERGY=205060
PARENT_MASS=385.1717235480092
75.124763 0.0023705204208609738
81.858307 0.0024503259711892112
82.436142 0.003009950077194628
83.029457 0.018455772453685685
83.859123 0.002445399702650431
84.032722 0.0027330937853151877
85.220497 0.002199086275711427
106.065071 0.0028592062599079576
109.044777 0.8913885870181001
110.048088 0.3344492973663183
110.056969 0.006418927906030442
130.064941 0.010006236655970096
131.066757 0.0029064984378802464
135.060349 0.018280397293705116
136.064194 0.013480241229517806
140.810074 0.0029744809437154116
143.072723 0.01591480314138292
144.076645 0.009403261386823413
156.081223 0.00928798670301596
157.084167 0.0031705464315588587
218.093323 0.0036060285703870174
219.099457 0.002954775869560291
220.096298 0.011205290418309167
232.098495 0.004094714409434002
233.078903 0.003134092044371886
233.102966 0.016941437504864692
237.092438 0.00616473244942939
238.098587 0.006096749943594226
239.094681 0.011960980012158031
245.107239 0.004309499717724812
246.111115 0.006075074362023593
248.10524 0.005328252051544533
249.110184 0.011751120972406
252.118668 0.030387194854611038
253.121155 0.07181612801204375
254.080688 0.002867088289570006
260.094482 0.010777690309143056
261.098785 0.02060658129771707
268.0961 0.0031528118648192502
275.117706 0.06969881779407607
276.120972 0.16202201647935352
277.128845 0.022270674810116978
280.096466 0.011006269169342452
308.089691 0.005415939631534818
308.127228 0.0029715251825921433
323.114746 0.010037764774618287
328.118744 0.0031193132387555456
340.117706 0.004448420490518411
354.132019 0.013040818075858624
356.111847 0.018975986411380864
370.132416 0.012483164477268719
386.173248 1.0
401.792847 0.003638541942742966
689.396973 0.003194192520545003
END IONS

BEGIN IONS
CHARGE=1+
PRECURSORTYPE=M-e
FORMULA=C21H18O6
ONTOLOGY=
INCHIKEY=OWYIHNQLFJKFDI-UHFFFAOYSA-N
INCHI=InChI=1S/C21H18O6/c1-4-9-26-17-7-5-13(10-18(17)24-2)11-19-20(22)15-12-14(21(23)25-3)6-8-16(15)27-19/h4-8,10-12H,1,9H2,2-3H3/b19-11+
SMILES=C=CCOc1ccc(C=C2Oc3ccc(C(=O)OC)cc3C2=O)cc1OC
IONMODE=positive
INSTRUMENTTYPE=LC-ESI-Orbitrap
INSTRUMENT=Orbitrap
COMMENT=DB#=CCMSLIB00010118371; origin=GNPS
NUM_PEAKS=42
COMPOUND_NAME=methyl 2-[(3-methoxy-4-prop-2-enyloxyphenyl)methylene]-3-oxobenzo[b]furan-5-ca rboxylate
PRECURSOR_MZ=366.11
COLLISION_ENERGY=205060
PARENT_MASS=365.10272354800924
66.867706 0.00455341943485988
91.05426 0.03104774430926625
97.024353 0.004859339296342697
119.013153 0.0062599111791857955
119.049187 0.03472502590953929
121.027893 0.00579790975572195
136.015259 0.00845129630939944
145.02858 0.02227387943843935
147.043808 0.02269634019953467
151.039169 0.027819977607498575
165.018051 0.011135899175473135
165.071121 0.008526215459150334
178.078186 0.019476897847739316
179.033813 0.21559650210814163
179.08522 0.009358650456382487
181.064804 0.031443150932951525
182.072647 0.031470205070361565
191.0345 0.00822861994763984
192.056992 0.01923965387352815
197.094589 0.005970640017647622
209.05954 0.028683628917126933
210.067154 0.03545964979459666
223.075943 0.006008099592523069
237.054047 0.055642036302490226
238.061539 0.009989219966785843
238.173676 0.004946744971052073
251.070099 0.03577597509354488
254.056854 0.0447704352386383
265.050232 0.025037563629250102
266.056885 0.10347791341843594
267.064514 0.0257909173017452
269.079559 0.04452278582696174
279.06485 0.08183668457789302
282.052216 0.2692802350796432
294.051147 0.06661977282848926
295.061279 0.06747093761315913
297.075592 0.2613408862935416
310.047272 0.06314435671504501
325.070374 1.0
335.090759 0.005652233631206323
366.113403 0.11253896836330793
367.119263 0.009163028232032931
END IONS

BEGIN IONS
CHARGE=1+
PRECURSORTYPE=M-e
FORMULA=C19H15NO4
ONTOLOGY=
INCHIKEY=GTHIKWPDZKULJR-UHFFFAOYSA-N
INCHI=InChI=1S/C19H15NO4/c1-11-3-5-14(7-12(11)2)18-15(19(21)24-20-18)8-13-4-6-16-17(9-13)23-10-22-16/h3-9H,10H2,1-2H3/b15-8-
SMILES=Cc1ccc(C2=NOC(=O)C2=Cc2ccc3c(c2)OCO3)cc1C
IONMODE=positive
INSTRUMENTTYPE=LC-ESI-Orbitrap
INSTRUMENT=Orbitrap
COMMENT=DB#=CCMSLIB00010118358; origin=GNPS
NUM_PEAKS=22
COMPOUND_NAME="4-(2H-benzo[3,4-d]1,3-dioxolan-5-ylmethylene)-3-(3,4-dimethylphenyl)isoxazol-5 -one "
PRECURSOR_MZ=321.1
COLLISION_ENERGY=205060
PARENT_MASS=320.09272354800925
53.039131 0.0029070242939629493
57.325432 0.0020909855893744126
59.41008 0.002361786852144328
65.039139 0.0029888099102357425
69.033928 0.0023172591277291405
69.170174 0.0021945807033199507
79.054527 0.031553799487113315
91.503357 0.002060088801004691
92.379669 0.0022318385951775564
103.054077 0.003140567664875259
105.069923 0.05650295609566373
123.080101 0.01671334504988014
131.382187 0.0024235804288837716
133.064774 1.0
165.87175 0.0022291124079684634
167.41301 0.002008291244031922
184.888702 0.010698467337551048
219.930557 0.002127334752162321
321.056061 0.0032087223451025865
321.098694 0.09759659335646352
321.165466 0.003658543234602949
322.106506 0.0027643538300204103
END IONS

BEGIN IONS
CHARGE=1+
PRECURSORTYPE=M-e
FORMULA=C19H18O5
ONTOLOGY=
INCHIKEY=VGUPMNBTSCIGOC-UHFFFAOYSA-N
INCHI=InChI=1S/C19H18O5/c1-3-22-15-10-9-12(11-16(15)23-4-2)19-18(21)17(20)13-7-5-6-8-14(13)24-19/h5-11,21H,3-4H2,1-2H3
SMILES=CCOc1ccc(-c2oc3ccccc3c(=O)c2O)cc1OCC
IONMODE=positive
INSTRUMENTTYPE=LC-ESI-Orbitrap
INSTRUMENT=Orbitrap
COMMENT=DB#=CCMSLIB00010121618; origin=GNPS
NUM_PEAKS=23
COMPOUND_NAME="2-(3,4-diethoxyphenyl)-3-hydroxychromen-4-one "
PRECURSOR_MZ=326.115
COLLISION_ENERGY=205060
PARENT_MASS=325.10772354800923
62.555908 0.011940486433173147
65.314636 0.010969928441021551
82.399139 0.017627431641239796
97.125549 0.011872285060751685
121.028297 0.04866430235242272
166.622345 0.011316181562545906
185.059097 0.06815415608671017
185.396393 0.014175392944830336
196.052795 0.02231758756006967
197.059082 0.02381801775334187
213.05452 0.12672864247791324
225.053116 0.013404192810526095
241.048691 0.30096741023650136
242.055954 0.08379850166831049
253.0495 0.06148616036765786
255.065247 0.027007743478899546
269.043793 0.8374551444819843
270.051758 0.35372904119362897
283.059387 0.07101861372841164
297.074097 0.07534153148804902
298.083557 0.18350890814849014
326.114227 1.0
326.378937 0.018923257717247604
END IONS

BEGIN IONS
CHARGE=1+
PRECURSORTYPE=M-e
FORMULA=C17H14N2O4
ONTOLOGY=
INCHIKEY=QFMIGYKAOSBQJF-UHFFFAOYSA-N
INCHI=InChI=1S/C17H14N2O4/c1-23-16-9-11(2-7-15(16)21)8-12(10-18)17(22)19-13-3-5-14(20)6-4-13/h2-9,20-21H,1H3,(H,19,22)/b12-8-
SMILES=COc1cc(C=C(C#N)C(=O)Nc2ccc(O)cc2)ccc1O
IONMODE=positive
INSTRUMENTTYPE=LC-ESI-Orbitrap
INSTRUMENT=Orbitrap
COMMENT=DB#=CCMSLIB00010120805; origin=GNPS
NUM_PEAKS=28
COMPOUND_NAME=(2Z)-2-cyano-3-(4-hydroxy-3-methoxyphenyl)-N-(4-hydroxyphenyl)prop-2-enamide
PRECURSOR_MZ=310.095
COLLISION_ENERGY=205060
PARENT_MASS=309.08772354800925
52.42878 0.0034803236989511517
69.127693 0.00406235735508974
82.685257 0.003992784818933232
84.223473 0.004583302930700663
92.370117 0.005083885812802365
104.277733 0.0047546889344032795
109.052177 0.46410990424443377
110.036163 0.006354857266002956
114.033722 0.12365075944362333
142.028625 0.24682129869865418
142.46669 0.0042150775564089036
156.810623 0.0038485490732429115
160.03891 0.04757573649317086
170.023529 1.0
188.034103 0.02350363898301921
199.949448 0.0039588469964178625
202.049713 0.45905486558076947
211.049774 0.09087021667602785
213.711105 0.005231515340744223
227.533401 0.00500073814763971
235.846802 0.0040793262663474245
245.345215 0.004281256310313874
263.903595 0.005796580085625126
294.06189 0.01591514186858257
309.086945 0.0670238056856034
310.094238 0.36318221386597616
344.597809 0.004744507587648669
512.325195 0.006059598210119241
END IONS

BEGIN IONS
CHARGE=1+
PRECURSORTYPE=M-e
FORMULA=C12H10N2
ONTOLOGY=
INCHIKEY=PSFDQSOCUJVVGF-UHFFFAOYSA-N
INCHI=InChI=1S/C12H10N2/c1-8-12-10(6-7-13-8)9-4-2-3-5-11(9)14-12/h2-7,14H,1H3
SMILES=Cc1nccc2c1[nH]c1ccccc12
IONMODE=positive
INSTRUMENTTYPE=LC-ESI-Orbitrap
INSTRUMENT=Orbitrap
COMMENT=DB#=CCMSLIB00010115097; origin=GNPS
NUM_PEAKS=39
COMPOUND_NAME=HARMANE
PRECURSOR_MZ=182.084
COLLISION_ENERGY=205060
PARENT_MASS=181.07672354800926
62.683929 0.001069519184035973
71.093063 0.0010939953075774582
72.444946 0.000976422499851395
92.378906 0.0011905885808393911
112.966743 0.0019362362015853535
117.057869 0.007773791666229593
140.553207 0.006648764130590609
140.950348 0.0013064130940267768
141.056213 0.001076512362190683
147.057526 0.0046749395964236886
148.065384 0.01147799072005259
153.55687 0.0012028266426101339
154.05809 0.0018496956219208162
155.072266 0.001054658680457214
158.970673 0.0017334340350987612
160.562973 0.016330819285786714
161.052597 0.0014252971226568483
161.066681 0.027884860818271774
161.570526 0.022458154570216753
162.071777 0.0047099054871972395
167.060059 0.0013461867947816904
168.068527 0.001192773949012738
173.067322 0.001828716087456686
173.564087 0.001510089407782708
174.068283 0.03460661624585217
174.571655 0.026630459486770654
174.984222 0.0023068746437849875
175.073257 0.004213826911847493
176.98056 0.06623938348141388
181.075882 0.015281405488945533
181.57959 0.02671656299280052
182.083847 1.0
182.585403 0.13504089260925967
183.091507 0.04942516075568283
194.990936 0.014576405716223824
199.996674 0.0065744616126968145
202.597305 0.0014309790799075502
214.074753 0.0018003063012031763
246.10199 0.0013920795264219753
END IONS

BEGIN IONS
CHARGE=1+
PRECURSORTYPE=M-e
FORMULA=C22H22O6
ONTOLOGY=
INCHIKEY=BETRPSLREOEBMM-UHFFFAOYSA-N
INCHI=InChI=1S/C22H22O6/c1-4-5-10-27-18-8-6-14(11-19(18)25-2)12-20-21(23)16-13-15(22(24)26-3)7-9-17(16)28-20/h6-9,11-13H,4-5,10H2,1-3H3/b20-12+
SMILES=CCCCOc1ccc(C=C2Oc3ccc(C(=O)OC)cc3C2=O)cc1OC
IONMODE=positive
INSTRUMENTTYPE=LC-ESI-Orbitrap
INSTRUMENT=Orbitrap
COMMENT=DB#=CCMSLIB00010115047; origin=GNPS
NUM_PEAKS=47
COMPOUND_NAME=methyl 2-[(4-butoxy-3-methoxyphenyl)methylene]-3-oxobenzo[b]furan-5-carboxylat e
PRECURSOR_MZ=382.141
COLLISION_ENERGY=205060
PARENT_MASS=381.13372354800924
55.420731 0.00366267203519723
56.38065 0.003688085197627046
65.681297 0.003764324684916494
82.394867 0.005290702753357317
86.68631 0.004191583478267776
106.540207 0.004224938253956909
118.126053 0.003872330625243212
133.02829 0.02561170276129893
134.036179 0.004116932313630191
136.199234 0.0046394904660932825
140.99408 0.0038739189478950754
147.579712 0.004051811084903788
148.051743 0.08436534597638164
151.037994 0.005608367283730017
165.018768 0.043786878866572954
168.056763 0.006331054090327909
179.033798 0.04192536471858893
197.488449 0.004204290059482683
211.07576 0.010360628658105608
223.038696 0.004722083243990184
239.07103 0.007419055106854406
253.347992 0.004369475615276487
255.064865 0.1178170093472788
266.057892 0.035703904891239605
267.064911 0.035621312113342705
268.072235 0.004866620605309763
279.065704 0.04070712124460963
282.051453 0.02703325153471676
283.059784 0.3501107855049675
285.03952 0.004904740348954486
294.052521 0.009691944821671074
295.059814 0.2914047919694407
297.075684 0.008419698377528411
298.083557 0.027147610765650934
300.062683 0.034533311096816205
309.075256 0.38172634789031046
310.046722 0.16783170133180855
311.054901 0.0956551433858274
314.792908 0.004622018916922784
325.07019 0.71687195736942
326.078033 1.0
327.085541 0.00869130155099707
382.140533 0.31165431745804845
382.280365 0.005041336097014747
383.147797 0.025073261382317205
438.947754 0.004283706192075859
490.130005 0.004337709162239217
END IONS

BEGIN IONS
CHARGE=1+
PRECURSORTYPE=M-e
FORMULA=C21H26N2O2
ONTOLOGY=
INCHIKEY=IYLRRIUNGGQRTN-UHFFFAOYSA-N
INCHI=InChI=1S/C21H26N2O2/c1-25-17(24)15-13-19-7-4-11-23-12-10-20(18(19)23)14-5-2-3-6-16(14)22-21(15,20)9-8-19/h2-3,5-6,15,18,22H,4,7-13H2,1H3
SMILES=COC(=O)C1CC23CCCN4CCC5(c6ccccc6NC15CC2)C43
IONMODE=positive
INSTRUMENTTYPE=LC-ESI-Orbitrap
INSTRUMENT=Orbitrap
COMMENT=DB#=CCMSLIB00010120802; origin=GNPS
NUM_PEAKS=55
COMPOUND_NAME=
PRECURSOR_MZ=338.199
COLLISION_ENERGY=205060
PARENT_MASS=337.19172354800924
58.065559 0.018274713381466193
62.130539 0.0024737978888383924
64.79744 0.0027490547562044067
70.065582 0.00519356999957833
71.117409 0.0026483224558066314
74.12812 0.002694003382731204
80.049652 0.0040749729428355905
84.08107 0.005953747475835961
84.959908 0.004426364688409226
87.044273 0.0037762899590980006
88.743057 0.0025991276114263225
92.372253 0.0030442238224862605
94.065163 0.0030360246817562092
96.080673 0.006617877874970131
108.080658 0.010867375384773961
109.088821 0.03742790612686647
110.096527 0.0054196320225640355
122.096382 0.026156430234682834
123.099854 0.01797954431518434
124.112106 0.46326082169445787
130.065155 0.004768385987434232
131.068741 0.003605279309585498
134.096298 0.01735406700806327
135.099686 0.00611890159625557
136.111679 0.011809105262911304
147.099319 0.004715677225598186
156.080551 0.01209256127100737
159.099121 0.004098399059207167
168.080643 0.003307767631666487
182.096176 0.004234270534162306
197.079163 0.005233394397410008
207.099182 0.004078486860291327
209.113113 0.0032819989036577536
222.110962 0.005209968281038433
223.122604 0.029071810417125428
224.126373 0.056276559359436276
230.580536 0.003195322273082924
235.129272 0.011797392204725516
236.124512 0.0037177246681690617
249.13855 0.006090790256609678
250.141876 0.047456626545538026
251.151169 0.032025843691581124
252.157776 0.08897473259088162
263.152405 0.011296073314373796
264.156921 0.05216293332458758
278.135925 0.014321556243762797
278.172791 0.02236491329994331
278.344208 0.0028884401486152823
279.964661 0.003961356278433449
295.152679 0.02053533361132325
305.164368 0.025047203624488725
306.167786 0.4884509246288132
309.158661 0.0066190491807887105
310.164215 0.03484869071435599
338.194275 1.0
END IONS

BEGIN IONS
CHARGE=1+
PRECURSORTYPE=M-e
FORMULA=C17H11NO
ONTOLOGY=
INCHIKEY=UKHKOHUEPNXICX-UHFFFAOYSA-N
INCHI=InChI=1S/C17H11NO/c1-10-6-7-11-9-14-16(18-15(11)8-10)12-4-2-3-5-13(12)17(14)19/h2-9H,1H3
SMILES=Cc1ccc2cc3c(nc2c1)-c1ccccc1C3=O
IONMODE=positive
INSTRUMENTTYPE=LC-ESI-Orbitrap
INSTRUMENT=Orbitrap
COMMENT=DB#=CCMSLIB00010114969; origin=GNPS
NUM_PEAKS=12
COMPOUND_NAME="3-methylindeno[3,2-b]quinolin-10-one "
PRECURSOR_MZ=245.084
COLLISION_ENERGY=205060
PARENT_MASS=244.07672354800926
51.348289 0.027821729957805907
66.72789 0.03208509142053446
75.207703 0.03305203938115331
79.884781 0.028979137365213313
136.201462 0.029404008438818567
192.627014 0.031967885607126115
196.896103 0.030663970932958275
213.081314 0.0389269807782466
244.073532 0.041974331926863576
245.082474 1.0
246.090591 0.8876289263947492
358.919312 0.03067862165963432
END IONS

BEGIN IONS
CHARGE=1+
PRECURSORTYPE=M-e
FORMULA=C22H18ClNO4
ONTOLOGY=
INCHIKEY=AEYDCLVYMODTOM-UHFFFAOYSA-N
INCHI=InChI=1S/C22H18ClNO4/c23-16-2-6-18(7-3-16)28-19-8-4-17(5-9-19)24-12-11-20(25)15-1-10-21-22(13-15)27-14-26-21/h1-10,13,24H,11-12,14H2
SMILES=O=C(CCNc1ccc(Oc2ccc(Cl)cc2)cc1)c1ccc2c(c1)OCO2
IONMODE=positive
INSTRUMENTTYPE=LC-ESI-Orbitrap
INSTRUMENT=Orbitrap
COMMENT=DB#=CCMSLIB00010115871; origin=GNPS
NUM_PEAKS=36
COMPOUND_NAME="1-(2H-benzo[d]1,3-dioxolen-5-yl)-3-{[4-(4-chlorophenoxy)phenyl]amino}propan-1- one "
PRECURSOR_MZ=395.092
COLLISION_ENERGY=205060
PARENT_MASS=394.0847235480092
55.018188 0.00406493276098335
56.900509 0.0032575337452278945
62.396198 0.0031667362780581636
65.038643 0.004320562553168901
73.725014 0.0035075760009722315
75.044083 0.004063535876873047
78.091614 0.0033874439674861255
80.947983 0.003703139776414729
104.049026 0.016131217705785475
105.057358 0.043473827280867294
108.04422 0.015709358704473802
117.057121 0.005190821353888017
117.294823 0.003057779317454486
118.065681 0.0043876129904634725
119.048729 0.005186630701557107
120.044067 0.017725062475641835
121.02832 0.006376775963535737
122.036057 0.08037950547508727
126.994728 0.005688112097156084
135.201263 0.0038274624622317457
137.046173 0.003953182032159066
147.043839 0.007949667471737542
149.023178 0.1342307848113997
150.026367 0.04797179411604475
151.038696 0.004115220588954279
164.046524 0.26563427618354496
219.044037 0.053514630265729266
230.035995 0.018871904330201052
231.044556 0.11449001856458983
231.084213 0.013495297389642663
232.051987 1.0
245.059372 0.02125498862237892
376.072083 0.0354626969082764
383.40152 0.0036682176736571406
395.090912 0.6025752955457556
715.10199 0.00403699507877728
END IONS

BEGIN IONS
CHARGE=1+
PRECURSORTYPE=M-e
FORMULA=C18H19NO5
ONTOLOGY=
INCHIKEY=BWPNMQBBEJTENG-UHFFFAOYSA-N
INCHI=InChI=1S/C18H19NO5/c1-23-16-8-5-13(11-17(16)24-2)15(20)9-10-19-14-6-3-12(4-7-14)18(21)22/h3-8,11,19H,9-10H2,1-2H3,(H,21,22)
SMILES=COc1ccc(C(=O)CCNc2ccc(C(=O)O)cc2)cc1OC
IONMODE=positive
INSTRUMENTTYPE=LC-ESI-Orbitrap
INSTRUMENT=Orbitrap
COMMENT=DB#=CCMSLIB00010116604; origin=GNPS
NUM_PEAKS=111
COMPOUND_NAME="4-{[3-(3,4-dimethoxyphenyl)-3-oxopropyl]amino}benzoic acid "
PRECURSOR_MZ=329.126
COLLISION_ENERGY=205060
PARENT_MASS=328.1187235480092
52.39782 0.0009701693785798361
55.95034 0.0010275157167076378
65.064438 0.0009821467783153897
73.948936 0.0009810579237939756
92.367126 0.001100106018135235
98.984222 0.016411941249765444
121.064507 0.001354172073131825
123.0439 0.002113829577571629
124.051407 0.002233966526434303
125.957329 0.0010002943536722888
138.062744 0.0013944596904241415
150.054977 0.009522395741272196
151.039246 0.0023127270034832455
162.054565 0.0016209414308782446
163.057892 0.0018742815828605589
165.054199 0.002641198117443123
177.073944 0.0011937475069768353
180.078232 0.00968572391948429
181.085587 0.0024125386679461915
190.049484 0.006643101435146554
191.053085 0.007703645739003749
192.064926 0.00480584090601407
193.068726 0.0052112577394872
193.803894 0.0011338605082990678
196.074631 0.0026219616875648097
197.080612 0.00866764494196224
200.066696 0.0013882895148027957
205.072037 0.004564115202260172
206.079376 0.0038389380909984758
207.063919 0.007049970074648236
208.070709 0.00556985382853953
209.0784 0.001840164141189588
211.057907 0.0013755862120529662
211.095169 0.0013770380180815182
214.084 0.0012950109774683334
215.089844 0.006416256743185313
222.055176 0.0024176199890461234
223.057953 0.010921210849781994
223.095566 0.0011908438949197314
224.069366 0.012566470031638483
225.074112 0.03382417685320317
226.083054 0.01357438636696067
227.088974 0.014555081339247508
228.100952 0.010562614760729663
229.105164 0.03333854773665255
230.112717 0.005511781587397452
231.08403 0.0020209139917443052
235.05986 0.008421563820122685
236.06723 0.0062151816082308695
237.074692 0.012900022466698292
238.051804 0.004136195375344486
238.08139 0.02607116970922866
239.053146 0.010402553146081812
239.089996 0.0014993526759870194
240.063065 0.0014975379184513295
240.100693 0.005325950415742804
241.076874 0.0015468993234220955
241.105286 0.017774098256054305
242.079208 0.014181967189909658
243.084351 0.03395992071687278
250.0504 0.0016256598004710384
250.084732 0.005708864255773379
251.05365 0.0063879465256285505
251.08934 0.026781828760204834
252.065247 0.02681340554132584
252.094894 0.0020365209065512386
253.068695 0.13033044194064364
254.077316 0.017787890413325548
255.084442 0.030798613089700923
256.095154 0.012083018624130686
257.099945 0.05131045456409705
258.107697 0.017485551807879605
264.0625 0.004266494966407023
265.06897 0.00767098010336133
266.046539 0.003485786274553216
266.077057 0.0118031830121273
267.047607 0.015805812232845006
267.084229 0.012870623394620116
268.055511 0.004825077335892383
268.093842 0.012198074251893428
269.066803 0.004086108067359444
269.099823 0.05089342328239551
270.074066 0.022161456074338275
270.10791 0.011713171038357078
271.079132 0.06981009288292019
278.07962 0.0015882757952358259
279.083374 0.017411872651930595
280.060852 0.0168376833676383
280.091736 0.0034484022693180034
281.063873 0.10052813073803649
281.098877 0.008491976412507454
282.071259 0.02410179483149795
283.079193 0.03638879220264018
284.051819 0.004335092801256103
284.089081 0.004488258337268332
285.058807 0.010607257796107635
285.095215 0.032961078169229045
286.101837 0.020995655833411064
295.079803 0.020904192053612294
296.087402 0.07986457553365668
297.094879 0.20529009080683758
298.067505 0.020796395455992312
298.103149 0.03610968249365107
299.074127 0.07618969152388456
300.083557 0.0023330522878829726
301.125702 0.0054805677577835854
311.109772 0.008187460098018684
312.087036 0.005997410703948078
313.089996 0.11352070583905496
314.097504 0.18237551035518798
329.120911 1.0
END IONS

BEGIN IONS
CHARGE=1+
PRECURSORTYPE=M-e
FORMULA=C17H14N2
ONTOLOGY=
INCHIKEY=CTSPAMFJBXKSOY-UHFFFAOYSA-N
INCHI=InChI=1S/C17H14N2/c1-10-14-9-18-8-7-12(14)11(2)17-16(10)13-5-3-4-6-15(13)19-17/h3-9,19H,1-2H3
SMILES=Cc1c2ccncc2c(C)c2c1[nH]c1ccccc12
IONMODE=positive
INSTRUMENTTYPE=LC-ESI-Orbitrap
INSTRUMENT=Orbitrap
COMMENT=DB#=CCMSLIB00010116175; origin=GNPS
NUM_PEAKS=11
COMPOUND_NAME=ellipticine
PRECURSOR_MZ=246.115
COLLISION_ENERGY=205060
PARENT_MASS=245.10772354800926
78.092491 0.018431326388480176
80.441353 0.018019343574049006
82.397118 0.028681851176112844
84.960243 0.032850724893571104
124.033447 0.023021992034998922
212.626434 0.02721048398171581
231.091522 0.12846016518549036
245.106506 0.17469052243344516
246.114822 1.0
247.122513 0.27834343672140155
332.342804 0.021678143330782964
END IONS

