BEGIN IONS
CHARGE=1+
PRECURSORTYPE=M+2H]
FORMULA=C15H26N2
ONTOLOGY=
INCHIKEY=SLRCCWJSBJZJBV-UHFFFAOYSA-N
INCHI=InChI=1S/C15H26N2/c1-3-7-16-11-13-9-12(14(16)5-1)10-17-8-4-2-6-15(13)17/h12-15H,1-11H2/t12?,13?,14-,15?/m1/s1
SMILES=C1CCN2CC3CC(CN4CCCCC34)C2C1
IONMODE=positive
INSTRUMENTTYPE=LC-ESI-Orbitrap
INSTRUMENT=Orbitrap
COMMENT=DB#=CCMSLIB00010108476; origin=GNPS
NUM_PEAKS=112
COMPOUND_NAME="Pachycarpine HI, (+)-Sparteine HI "
PRECURSOR_MZ=118.112
COLLISION_ENERGY=102040
PARENT_MASS=117.10472354800923
55.054871 0.0006367771825800404
56.050011 0.0022988797468886015
56.965271 0.004265905005077784
57.070511 0.0024383773146279997
58.065632 0.003462789754159273
58.98814 0.0005736015825305224
59.070358 0.00030337069214530094
59.07336 0.0026994787830407476
62.049911 0.04671223952389699
62.551559 0.0019824539813226632
62.990391 0.0004289002442668143
63.998169 0.0008050324295327306
67.054863 0.0008126098497698837
67.552223 0.002377940541170224
67.993462 0.0017483756019484379
68.049858 0.0005760665264630903
69.05761 0.0019242995633580058
69.070122 0.0016243067573425201
69.487152 0.0007513514283345853
70.065628 0.0013787253062829778
74.976097 0.0003649942904594984
75.291573 0.00031259140833749937
76.93309 0.004040773459236583
76.998581 0.024210040246143823
77.073174 0.006117990840633523
78.013603 0.0004027900974255395
78.49218 0.0020784955004730867
79.021561 0.004465930640494683
79.054573 0.0004353821338672706
80.049873 0.0014891000179301848
81.070328 0.00041666681882369954
81.567818 0.0004960927899842207
81.765343 0.00032354671470446783
82.065086 0.0005718669923557523
84.080872 0.007623797700773335
86.003777 0.07147187097278374
87.49733 0.0006028157328424382
88.506798 0.0006365945941405909
88.575363 0.001291174149566955
90.080933 0.5183718661889666
90.48288 0.003110302771802064
90.582748 0.046481173853773684
93.069733 0.0004703478200218449
94.06517 0.0012510959871077955
94.943619 0.0018424086482649168
95.008949 0.014128876033039743
95.085587 0.003695133543358729
95.58326 0.0183872949121001
96.084793 0.002117934603394173
97.088676 0.006033543687388142
97.511711 0.003163253419242411
97.590652 0.0005748797016066687
97.994499 0.0007829392283593443
98.09655 0.001997791410236419
98.984322 0.0007856780549510864
99.086014 0.01015748618079396
99.488243 0.052734462728039264
99.587624 0.0007875952335653059
104.030617 0.0003565039280250979
104.096169 0.001772933747054392
105.069412 0.0004881501928681686
107.000053 0.014214053540042923
107.989449 0.0015217833485916407
108.080597 0.006070426552156936
108.493477 0.11799330557745602
109.598457 0.004049355115890709
110.095718 0.0010706073147119905
110.593987 0.004324881071019964
110.996078 0.0018556463101250037
116.005302 0.02496641285656327
117.498756 0.012944790003209904
117.781143 0.000800376424326769
117.959473 0.0005203770524310008
118.086983 0.02233978686086286
118.11203 1.0
118.444641 0.0007529947242896305
118.613747 0.1387236666387915
120.001534 0.004580048415150605
120.079964 0.00035623004536592366
123.091553 0.028303764352820754
124.095016 0.0007376572953758748
124.112267 0.00039740373846178006
125.010986 0.0006865325323300221
127.512802 0.000795172653802459
134.096268 0.000711181971655701
136.112595 0.0016363575943461855
136.185425 0.0003526695707966589
137.107391 0.029589186966545052
138.110657 0.002067266311446944
138.625305 0.006288984914177956
139.12648 0.0005932298397713408
150.127747 0.008561206748906935
162.12793 0.0026612265049760827
164.143173 0.0021454141635313187
167.154221 0.0006965748964997431
178.158966 0.00492860974605965
179.154007 0.016888700295318543
180.157349 0.0006728383993713115
181.168594 0.0002997189233563115
190.158844 0.006794024537695201
191.162506 0.0005172730489603597
192.176453 0.0005967903143406056
193.169815 0.06260236364386636
194.173355 0.0055569878604250144
195.185974 0.0006103018588598666
206.189957 0.001859754550012617
207.18515 0.002368902413417475
208.18837 0.00045071956278102646
218.190079 0.011024233502860614
219.193848 0.0013692307074316052
235.217163 0.0003487439193484952
240.571243 0.00034463567946088207
END IONS

BEGIN IONS
CHARGE=1+
PRECURSORTYPE=M+2H]
FORMULA=C15H26N2
ONTOLOGY=
INCHIKEY=SLRCCWJSBJZJBV-UHFFFAOYSA-N
INCHI=InChI=1S/C15H26N2/c1-3-7-16-11-13-9-12(14(16)5-1)10-17-8-4-2-6-15(13)17/h12-15H,1-11H2/t12-,13-,14-,15+/m1/s1
SMILES=C1CCN2CC3CC(CN4CCCCC34)C2C1
IONMODE=positive
INSTRUMENTTYPE=LC-ESI-Orbitrap
INSTRUMENT=Orbitrap
COMMENT=DB#=CCMSLIB00010112992; origin=GNPS
NUM_PEAKS=91
COMPOUND_NAME=Pachycarpine
PRECURSOR_MZ=118.112
COLLISION_ENERGY=102040
PARENT_MASS=117.10472354800923
50.115459 0.0009779679267697616
51.82008 0.0009958115521002976
56.049858 0.0011986112169146588
56.96521 0.020469040280611597
58.06554 0.009153093501283025
58.988091 0.0016543099561252704
59.073441 0.0077413882203248505
60.481609 0.0013581744049665672
61.010941 0.0016759281945064968
61.285709 0.0008956127329365186
62.049839 0.05225711566032051
62.551529 0.0023834965681904436
62.9902 0.0012126802291945044
63.997971 0.005743931623227733
67.552094 0.0016985758728106386
67.993103 0.01075593146126252
69.05761 0.0012905745166951136
69.070129 0.001715390058218259
69.486961 0.005143768148167974
74.975609 0.002357760570117555
76.933167 0.012863194983470626
76.998466 0.11101686016705752
77.072983 0.005844130442391513
78.491997 0.010383274209167095
79.0214 0.019751177507698496
81.567551 0.001240131960472252
84.080841 0.008679207990100905
86.003677 0.31930584179704524
87.005592 0.0015853374812899294
87.49691 0.004764247963253113
88.50634 0.004985920693320925
89.978798 0.0017050956589891037
90.037323 0.0014051854947797102
90.080833 0.5245013564586718
90.482719 0.013034425157315578
90.582603 0.0380103534204514
91.976189 0.0012655248119041688
94.064774 0.0015547974302434352
94.943314 0.00650708975274912
95.008797 0.09166167388304053
95.085617 0.003737553213465349
95.583076 0.017492586316821802
97.08831 0.002394134114060571
97.511452 0.013102368192228002
97.994507 0.005688685014031266
98.984268 0.004286244692379331
99.08593 0.01441421780066337
99.488129 0.19545083635130803
100.981216 0.0034637221939698153
106.516617 0.0019607399065131293
106.999786 0.06465534694527429
107.026604 0.0020273103548616674
107.08551 0.0011612082330487276
107.989449 0.009441336679699376
108.080063 0.006945288013270167
108.493347 0.5494930694672923
108.996002 0.0010496855747328775
109.495903 0.0016944581131189765
109.598503 0.00533627341375318
110.593872 0.004140750516607268
110.996262 0.0070526929118943545
116.005127 0.12316596699066573
116.97139 0.0011491981006147129
117.49865 0.0955999678814744
117.959343 0.0023213870261745394
118.086319 0.07561956841760671
118.111893 1.0
118.613632 0.138873504481152
120.001343 0.02221325465667149
123.091347 0.025540747634175485
124.094299 0.0013046435289749592
125.010353 0.009038139376557458
127.512772 0.006957641292345153
129.516953 0.0013447916859686652
136.112366 0.0009982135785871005
137.107162 0.030943591496277203
138.625107 0.008554988906069098
139.127365 0.00145905951741229
146.466141 0.0010136551774308337
150.127625 0.008456162673469205
162.126297 0.001807010211357742
164.143021 0.0021690299175830398
178.158539 0.0041136419319704924
179.153915 0.01950651395268557
180.156525 0.001282682143952761
190.1586 0.006141981726755075
192.173859 0.0012885156368492824
193.169662 0.06588312562667155
194.172607 0.004320559356476516
218.18956 0.01070789093152646
219.193604 0.0010201749636092987
END IONS

BEGIN IONS
CHARGE=1+
PRECURSORTYPE=M+2H]
FORMULA=C36H38N4O2
ONTOLOGY=
INCHIKEY=RVNQGBQBTQGUTJ-UHFFFAOYSA-N
INCHI=InChI=1S/C36H38N4O2/c41-35(31-13-9-27(10-14-31)23-39-21-17-29-5-1-3-7-33(29)25-39)37-19-20-38-36(42)32-15-11-28(12-16-32)24-40-22-18-30-6-2-4-8-34(30)26-40/h1-16H,17-26H2,(H,37,41)(H,38,42)
SMILES=O=C(NCCNC(=O)c1ccc(CN2CCc3ccccc3C2)cc1)c1ccc(CN2CCc3ccccc3C2)cc1
IONMODE=positive
INSTRUMENTTYPE=LC-ESI-Orbitrap
INSTRUMENT=Orbitrap
COMMENT=DB#=CCMSLIB00010103617; origin=GNPS
NUM_PEAKS=141
COMPOUND_NAME="[4-(2-1,2,3,4-tetrahydroisoquinolylmethyl)phenyl]-N-(2-{[4-(2-1,2,3,4-tetrahyd roisoquinolylmethyl)phenyl]carbonylamino}ethyl)carboxamide "
PRECURSOR_MZ=280.157
COLLISION_ENERGY=102040
PARENT_MASS=279.1497235480092
60.87619 0.00023788016421977845
60.878941 0.00016813722422112044
65.039436 0.00017090368242723194
66.046837 0.0002669720272662121
70.099762 0.00014915967334225367
79.054863 0.00015574983492878678
85.039993 0.0030343641332816833
87.05558 0.003566281801230013
90.046982 0.00023805637174883012
91.054466 0.009075938819618184
92.057426 0.0001635205869599662
93.070633 0.0001794849890920491
95.054619 0.00025428508517449054
101.349586 0.00016574080182601747
104.062279 0.0005867886924950253
105.033684 0.002215369159002344
105.069969 0.016032946860884016
106.065231 0.014885166258147132
106.072533 0.0007708903188482286
107.049507 0.00033296174689606913
115.054298 0.001371775613667389
117.057549 0.0006742933514220934
117.069939 0.0049545151981108294
118.041313 0.013144517803162939
118.064751 0.0017959071360948012
119.049294 0.026054891041721998
119.085587 0.013961768322904668
120.052353 0.00032430995721963125
120.080482 0.000348291801923566
120.089203 0.0005926211617066361
125.565163 0.0008149950633698661
130.065231 0.009450291715088495
130.076096 0.0003291556642685527
131.049225 0.0008723329933232852
131.074112 0.0005047464669685595
132.080841 0.10934341480041748
133.070541 0.0011345474173051018
133.084702 0.0035058602395181895
134.060043 0.025266239003945357
134.096603 0.006534462386599883
135.064713 0.0008519634029649102
142.065323 0.0010894030483620594
145.088699 0.005462380538343604
146.059906 0.0037884794953641915
146.09642 0.0015980613224755664
147.06813 0.01414995796393187
147.086258 0.0035124680218576276
147.570267 0.0009850000873989344
147.583633 0.006315630256270592
148.074966 0.00248170683916397
149.10759 0.0003500362564611777
154.591263 0.0008760685929391811
158.08345 0.0032864994866017433
159.068954 0.00018248051708592782
159.092896 0.0011928368679154
160.075684 0.013194595982919428
161.081375 0.0009605953446252757
161.106827 0.002887724227604869
161.581146 0.022000813937818196
162.082321 0.0015149618517747905
162.093262 0.001115887039978528
163.086014 0.00022674384838371176
167.581818 0.0006677912936000861
168.588608 0.000995079158060691
175.087097 0.0014514742790574674
176.095291 0.0002172462625678258
177.102921 0.0020780153901065533
178.078094 0.001170687581513603
179.086121 0.0002426906297628895
182.095627 0.000316556825941357
185.101822 0.0010127527732245753
185.602615 0.0002317481422087797
189.103012 0.0012841123679641743
191.100708 0.000216118534381895
193.101242 0.0006939404909113566
195.118027 0.0017622338772930238
199.099319 0.0036715834205913018
199.615036 0.026128492926606885
200.116974 0.0030875435655494826
203.083145 0.0023582382235574524
204.608353 0.002074315031996468
205.102005 0.0006770774303811101
208.088623 0.0002859319573921737
209.096375 0.003944528883092366
210.100739 0.00023837354530112316
213.10614 0.00068280417507529
213.612457 0.27788138780486016
214.113907 0.033711813009134034
219.07988 0.000328979456739501
220.11261 0.0015719297459172012
221.096054 0.03860257632323397
222.099869 0.0025827266155693026
222.127991 0.002176656364869688
223.1353 0.0010201887309505564
228.125656 0.04072806202166704
228.62796 0.004690556319591401
233.095993 0.000989651966165899
234.125519 0.009445904147615109
234.62822 0.0011625291729185098
237.089142 0.00034309367981654116
237.149963 0.000661306856530984
238.123795 0.001288147520379458
248.106842 0.0006506991632820725
249.135513 0.0011778063656872912
250.122498 0.04469498688170188
251.125366 0.0041823738058063345
252.101578 0.0008419548153147744
255.124527 0.0026630067658052516
256.133881 0.00030709448163128135
264.138153 0.001182493485960066
265.136871 0.00027446084725090883
265.643158 0.0064341298195578515
266.144043 0.0008238406813282608
267.149292 0.022204104564085128
268.131561 0.014566389217339723
269.13385 0.0011020547489479706
277.1362 0.0002921873246735086
278.950989 0.0002742317774631416
279.150116 0.0022279327558237293
279.652069 0.003876354190102268
280.156952 1.0
280.658295 0.18437601671744264
281.165039 0.0003524326788562806
281.372742 0.0003433579911101187
291.148102 0.000288575070327949
292.179443 0.0031769865072961193
293.164337 0.04628545365967532
294.166473 0.004076173528046882
295.141846 0.0019835152922761333
308.139313 0.0019357806726560311
308.175781 0.0029720571510090067
310.191193 0.027107607682535492
311.193604 0.002073680684891882
336.173706 0.001353502892904729
426.219971 0.0008366862101961288
427.217407 0.00030129725392548086
428.23407 0.006130541867754699
429.233856 0.000751824664204836
441.229584 0.0023487582584944718
455.242859 0.0007776566879638135
559.317444 0.0001991321285813123
END IONS

BEGIN IONS
CHARGE=1+
PRECURSORTYPE=M+2H]
FORMULA=C18H25N5O4S
ONTOLOGY=
INCHIKEY=HRBPBWKDJGGGCX-UHFFFAOYSA-N
INCHI=InChI=1S/C18H25N5O4S/c1-23(2)15-9-3-7-13-12(15)6-4-10-16(13)28(26,27)22-14(17(24)25)8-5-11-21-18(19)20/h3-4,6-7,9-10,14,22H,5,8,11H2,1-2H3,(H,24,25)(H4,19,20,21)
SMILES=CN(C)c1cccc2c(S(=O)(=O)NC(CCCNC(=N)N)C(=O)O)cccc12
IONMODE=positive
INSTRUMENTTYPE=LC-ESI-Orbitrap
INSTRUMENT=Orbitrap
COMMENT=DB#=CCMSLIB00010103869; origin=GNPS
NUM_PEAKS=105
COMPOUND_NAME=5-(amidinoamino)-2-({[5-(dimethylamino)naphthyl]sulfonyl}amino)pentanoic acid
PRECURSOR_MZ=204.589
COLLISION_ENERGY=102040
PARENT_MASS=203.58172354800925
58.06562 0.0006196856233221618
59.048302 0.0028919139469909755
60.056099 0.013796949772834414
68.049873 0.0007771115322492699
69.828842 0.00048358376933154383
70.065514 0.3802827483815901
71.049561 0.008232516350111787
71.062363 0.0007529251880595597
71.068893 0.0067289558053952436
72.056152 0.0010091000762227629
72.081192 0.0007489179831050515
73.063744 0.010566570121650156
84.959976 0.009990105066051618
85.063637 0.0019772694161244776
86.07135 0.005458814949278803
87.079308 0.011855888315763171
98.374191 0.0004631184011710198
99.044037 0.0019898634888386463
100.087227 0.0007875588880235235
101.094719 0.005338885029568879
102.970093 0.0007559305917754409
103.05468 0.0006556073534500747
112.086861 0.0814661904962265
113.09024 0.001185989552071768
114.054932 0.025753876899236257
115.054283 0.0011187257546210944
116.070709 0.005193194506579973
118.06543 0.0005924938754165704
119.068741 0.005771949393581087
127.097519 0.0022440347745245953
128.061996 0.0019253188661785318
129.069839 0.0028861893684845354
129.113297 0.0007867002012475573
130.097382 0.022881283404704515
131.049057 0.0034544968997113953
131.072693 0.001908717588509855
131.100632 0.0005404002110079637
132.080505 0.005849660546806014
133.084503 0.008257847610002785
144.0802 0.001691326719727785
144.549683 0.0025774914725247423
145.064713 0.0022118340204258687
146.058731 0.0007776839900999139
146.096375 0.0039894587611382405
147.043869 0.0008186147264209621
149.022186 0.0006982554633230549
152.061646 0.03234916379650612
152.563263 0.003955111290099599
154.065338 0.0008715670776055348
155.072617 0.001944782433100429
156.080536 0.011126290785117355
157.088409 0.014769555661078619
158.092941 0.004921706370912043
159.067856 0.0006777900951625308
160.075562 0.015145517354489086
161.059509 0.0024627136734706144
161.080948 0.00058533815228352
162.973511 0.0046517924943333825
170.09671 0.0038079896224840837
171.089691 0.0008334986305377068
171.104279 0.012714145748341232
172.075546 0.4369838398011052
173.079056 0.026482901972031427
173.103119 0.0071442739760374865
174.074081 0.013597877555272952
174.091187 0.029219822955960532
174.575302 0.0009873466778982896
175.097687 0.003524479871952628
175.118683 0.015936797218541795
176.066147 0.0032034741322039886
180.984268 0.008675169383122282
181.585693 0.05046402002228578
182.086395 0.005550121976456526
183.577728 0.014074734944859429
184.076065 0.0010445924629626927
186.091507 0.004639770879469859
187.099319 0.0017996643679621673
188.070648 0.0035422260653225927
189.078491 0.008321962889274916
196.573105 0.0020390948639940325
197.076797 0.5849027980881053
197.578232 0.06677778073547667
197.594498 0.0006501690038689564
198.99527 0.0007127100240518166
202.08577 0.005391264922902808
203.073364 0.0010245564381901515
203.093979 0.026080893446416658
203.999222 0.0006626199621204641
204.099258 0.0009064870064948205
204.588516 1.0
205.089813 0.11708008141495552
205.11293 0.0013285315568821313
217.590393 0.0006332814972749575
221.049347 0.003775788868385357
225.100906 0.003521474468236747
234.058212 0.004269819993491154
236.061493 0.008054481958561493
237.04422 0.0005621536093324369
251.084595 0.034475987826111346
252.066391 0.004360840791743555
303.114441 0.0022894020591881347
349.121307 0.016324208068965142
350.122406 0.001208601637172207
408.168396 0.00048730474536073004
411.194336 0.0005408295543959467
END IONS

BEGIN IONS
CHARGE=1+
PRECURSORTYPE=M+2H]
FORMULA=C22H18N4O2
ONTOLOGY=
INCHIKEY=BXYRCDZUINXBPI-UHFFFAOYSA-N
INCHI=InChI=1S/C22H18N4O2/c27-22(17-9-6-12-23-15-17)28-14-13-24-21-18-10-4-5-11-19(18)25-20(26-21)16-7-2-1-3-8-16/h1-12,15H,13-14H2,(H,24,25,26)
SMILES=O=C(OCCN=c1[nH]c(-c2ccccc2)nc2ccccc12)c1cccnc1
IONMODE=positive
INSTRUMENTTYPE=LC-ESI-Orbitrap
INSTRUMENT=Orbitrap
COMMENT=DB#=CCMSLIB00010104795; origin=GNPS
NUM_PEAKS=29
COMPOUND_NAME=2-[(2-phenylquinazolin-4-yl)amino]ethyl pyridine-3-carboxylate
PRECURSOR_MZ=186.079
COLLISION_ENERGY=102040
PARENT_MASS=185.07172354800926
78.034203 0.0009645017271510529
79.041924 0.0007094230031467026
80.044739 0.0009713999839772307
80.049744 0.01674583200267527
84.673264 0.0004555985076562028
92.381821 0.0005311657756156969
96.044388 0.009667593384759837
106.357826 0.000518309933348729
122.02301 0.0005567206815854013
124.039307 1.0
124.562782 0.002215908226845413
125.042801 0.03276844448855148
133.964767 0.0008180705481590041
140.03476 0.0005186234904771916
146.071014 0.0008674557958918685
186.078674 0.020729418541228766
186.117859 0.0010154547605262304
186.185455 0.0010682891366721836
186.580078 0.003184956532359174
205.075821 0.03711716830319971
206.079437 0.003000428162258916
207.091721 0.005345992261723627
220.099091 0.003239672251275903
221.107193 0.03801754759758015
222.11084 0.0032711847426863975
247.112137 0.0009361248070251847
248.117981 0.8532043108461135
249.121231 0.08556738867898853
370.538483 0.0005532715531723124
END IONS

BEGIN IONS
CHARGE=1+
PRECURSORTYPE=M+2H]
FORMULA=C29H36N2O4
ONTOLOGY=
INCHIKEY=JVVADJZDSMGGOB-UHFFFAOYSA-N
INCHI=InChI=1S/C29H36N2O4/c1-3-30(4-2)23-12-10-22(11-13-23)28-24-7-5-6-16-29(24,33)17-18-31(28)27(32)15-9-21-8-14-25-26(19-21)35-20-34-25/h8-15,19,24,28,33H,3-7,16-18,20H2,1-2H3/b15-9+
SMILES=CCN(CC)c1ccc(C2C3CCCCC3(O)CCN2C(=O)C=Cc2ccc3c(c2)OCO3)cc1
IONMODE=positive
INSTRUMENTTYPE=LC-ESI-Orbitrap
INSTRUMENT=Orbitrap
COMMENT=DB#=CCMSLIB00010107523; origin=GNPS
NUM_PEAKS=42
COMPOUND_NAME="(2E)-3-(2H-benzo[3,4-d]1,3-dioxolan-5-yl)-1-{2-[4-(diethylamino)phenyl]-6-hydr oxy-3-azabicyclo[4.4.0]dec-3-yl}prop-2-en-1-one "
PRECURSOR_MZ=239.141
COLLISION_ENERGY=102040
PARENT_MASS=238.13372354800924
61.55138 0.0019949377326675117
65.604248 0.0021005520832204977
83.551712 0.0021863073251224946
89.038727 0.009108109376748956
89.059731 0.002763124162758033
94.065483 0.002116800444844034
104.277046 0.002756805355459991
113.582741 0.002338861387032363
117.033539 0.021131896978165813
122.096252 0.027524724590270482
132.068771 0.002606959353820712
134.096329 0.011386490751071489
134.60672 0.003542142833930912
135.044189 0.020350170246722345
136.111908 0.020824080794075488
136.196579 0.002400244086499056
145.02832 0.12369426360619748
147.044281 0.011693404248404952
147.103867 0.002984282418189499
148.09967 0.004435802723225408
149.107025 0.004886243414900108
150.12793 0.004392473758895978
161.106888 0.06454300580247048
163.038727 0.06697664929897347
175.038864 1.0
176.042374 0.048871461016569716
177.138016 0.0037181667515192216
186.055527 0.003713653317734906
226.157852 0.004897978342739329
227.169006 0.017203404212297484
228.161819 0.0026087647273344383
230.135483 0.1072716834385866
230.637314 0.020809637805965675
239.164917 0.003509646110683839
255.185272 0.009603684406266813
256.207703 0.04814389549053804
257.202271 0.0026232077154442483
283.216034 0.0040097345739860115
285.231995 0.7059497889518362
286.235168 0.06984358243877076
303.242676 0.09242068091467444
304.246185 0.009608197840051128
END IONS

BEGIN IONS
CHARGE=1+
PRECURSORTYPE=M+2H]
FORMULA=C44H44N2O8
ONTOLOGY=
INCHIKEY=UUTSSGVKGXVTLV-UHFFFAOYSA-N
INCHI=InChI=1S/C44H44N2O8/c1-19(2)33-25-15-23(7)35(41(51)37(25)27(39(49)43(33)53)17-45-29-13-21(5)9-11-31(29)47)36-24(8)16-26-34(20(3)4)44(54)40(50)28(38(26)42(36)52)18-46-30-14-22(6)10-12-32(30)48/h9-20,47-54H,1-8H3/b45-17+,46-18+
SMILES=Cc1ccc(O)c(N=Cc2c(O)c(O)c(C(C)C)c3cc(C)c(-c4c(C)cc5c(C(C)C)c(O)c(O)c(C=Nc6cc(C)ccc6O)c5c4O)c(O)c23)c1
IONMODE=positive
INSTRUMENTTYPE=LC-ESI-Orbitrap
INSTRUMENT=Orbitrap
COMMENT=DB#=CCMSLIB00010114560; origin=GNPS
NUM_PEAKS=37
COMPOUND_NAME="8-[(1E)-2-(2-hydroxy-5-methylphenyl)-2-azavinyl]-2-{8-[(1E)-2-(2-hydroxy-5-met hylphenyl)-2-azavinyl]-1,6,7-trihydroxy-3-methyl-5-(methylethyl)(2-naphthyl)}- 3-methyl-5-(methylethyl)naphthalene-1,6,7-triol "
PRECURSOR_MZ=365.162
COLLISION_ENERGY=102040
PARENT_MASS=364.1547235480092
66.751068 0.0012078081923904249
79.054199 0.0014503284087989785
94.065071 0.0051279126390417285
107.04892 0.02819417337990744
122.05983 0.020765673707741093
123.067642 0.0777497766513422
124.075706 0.04525254694156126
134.059723 0.009719021637021047
214.062408 0.0021913091490511996
227.071198 0.0013952101777970345
231.098221 0.0015907600756126271
242.093887 0.006894092475930108
243.100632 0.04406007599605833
244.105316 0.002525852846784738
268.250244 0.001259571400635729
280.62558 0.00276597661836712
294.621796 0.00480774761026522
296.114929 0.011313136735390314
296.618378 0.002233965866957052
303.626953 0.04841633340107284
304.128326 0.004857114373684352
335.132141 0.0018064401099680601
343.632935 0.001418695337093515
357.649689 0.0030199997699412967
364.655731 0.022073653293865486
365.16153 1.0
365.662933 0.17586166570169823
441.172302 0.0018021265092809514
457.198944 0.002729071368044079
465.165039 0.0017647419699926765
469.162079 0.005716958777314678
470.167877 0.0017661798368883794
473.192108 0.0025062019992101317
483.178345 0.03245073868015322
484.181976 0.0019995935629574814
485.194916 0.0132820558045728
606.245361 0.01783530097429861
END IONS

BEGIN IONS
CHARGE=1+
PRECURSORTYPE=M+2H]
FORMULA=C16H16O4
ONTOLOGY=
INCHIKEY=UOBGWTOQZALQPG-UHFFFAOYSA-N
INCHI=InChI=1S/C16H16O4/c1-10-3-5-12(6-4-10)20-9-16(19)13-7-11(2)14(17)8-15(13)18/h3-8,17-18H,9H2,1-2H3
SMILES=Cc1ccc(OCC(=O)c2cc(C)c(O)cc2O)cc1
IONMODE=positive
INSTRUMENTTYPE=LC-ESI-Orbitrap
INSTRUMENT=Orbitrap
COMMENT=DB#=CCMSLIB00010108409; origin=GNPS
NUM_PEAKS=26
COMPOUND_NAME="1-(2,4-dihydroxy-5-methylphenyl)-2-(4-methylphenoxy)ethan-1-one "
PRECURSOR_MZ=137.06
COLLISION_ENERGY=102040
PARENT_MASS=136.05272354800925
54.778599 0.0032049315523345833
55.280998 0.0035965251034925814
57.070339 0.00426061001974209
63.986229 0.003565847267687577
66.085381 0.003556824374803752
67.054626 0.008344371338961213
69.03373 0.01654437639178123
69.070381 0.004433849563111526
79.054352 0.04263497345464914
81.064827 0.007701941365632884
81.070137 0.21901809270481065
88.582703 0.004368884734347988
91.054291 0.01642888336286827
92.385078 0.004354448105733868
95.049026 0.0061518083681917765
95.085564 0.06525175675724448
100.748154 0.004145116990829131
107.048843 0.0050077055505227865
109.056229 0.007564793393798746
109.064781 0.2256968380174178
114.760567 0.00452588307052654
118.662903 0.003988118654650579
137.059647 1.0
137.132782 0.03294258191884449
157.985046 0.005000487236215726
273.6073 0.0038365340542023223
END IONS

