BEGIN IONS
CHARGE=1+
PRECURSORTYPE=2M+H
FORMULA=C23H26N2O3
ONTOLOGY=
INCHIKEY=VLONLABMZBDAOH-UHFFFAOYSA-N
INCHI=InChI=1S/C23H26N2O3/c1-17-3-5-18(6-4-17)15-24-9-11-25(12-10-24)16-19-13-23(26)28-22-8-7-20(27-2)14-21(19)22/h3-8,13-14H,9-12,15-16H2,1-2H3
SMILES=COc1ccc2oc(=O)cc(CN3CCN(Cc4ccc(C)cc4)CC3)c2c1
IONMODE=positive
INSTRUMENTTYPE=LC-ESI-Orbitrap
INSTRUMENT=Orbitrap
COMMENT=DB#=CCMSLIB00010117264; origin=GNPS
NUM_PEAKS=21
COMPOUND_NAME=6-methoxy-4-({4-[(4-methylphenyl)methyl]piperazinyl}methyl)chromen-2-one
PRECURSOR_MZ=757.396
COLLISION_ENERGY=205060
PARENT_MASS=756.3887235480092
53.039108 0.005069631923074503
66.754883 0.004903497013976728
74.391586 0.003967100253607456
79.054527 0.04453296582277685
82.413887 0.004413902471256773
83.06076 0.029672701643099424
84.06839 0.006471709868036021
91.90583 0.0038248787026373917
92.392036 0.0047423964960637355
93.037277 0.0043081802563763715
103.054443 0.025281453932174163
104.305969 0.004967685501582686
105.069977 1.0
119.710533 0.004724776126917002
138.256439 0.004328317821115495
181.370605 0.0037846035731591435
209.36116 0.00386515383211564
273.123383 0.008352054975551738
275.139191 0.0057618607109818955
379.201111 0.48074534161490684
390.563049 0.004147079738463378
END IONS

BEGIN IONS
CHARGE=1+
PRECURSORTYPE=2M+H
FORMULA=C22H21NO5
ONTOLOGY=
INCHIKEY=OWEIRXJAOJVYMR-UHFFFAOYSA-N
INCHI=InChI=1S/C22H21NO5/c1-13-19(27-12-20(24)23-14-5-3-6-15(11-14)26-2)10-9-17-16-7-4-8-18(16)22(25)28-21(13)17/h3,5-6,9-11H,4,7-8,12H2,1-2H3,(H,23,24)
SMILES=COc1cccc(N=C(O)COc2ccc3c4c(c(=O)oc3c2C)CCC4)c1
IONMODE=positive
INSTRUMENTTYPE=LC-ESI-Orbitrap
INSTRUMENT=Orbitrap
COMMENT=DB#=CCMSLIB00010119668; origin=GNPS
NUM_PEAKS=58
COMPOUND_NAME="N-(3-methoxyphenyl)-2-(6-methyl-4-oxo(1,2,3-trihydrocyclopenta[2,1-c]chromen-7 -yloxy))acetamide "
PRECURSOR_MZ=759.291
COLLISION_ENERGY=205060
PARENT_MASS=758.2837235480093
53.038979 0.0031845133508191753
54.65218 0.0018151985636209707
60.21611 0.0019517147838761368
79.054428 0.0032701604091541652
81.354424 0.0020653917885753055
93.057343 0.010765056623087021
94.065323 0.013178746448891285
104.049393 0.016864684395780767
105.069809 0.0032499165590022584
106.06498 0.008692397811380263
107.049507 0.0033189532787510686
108.057007 0.01059947231030604
108.080856 0.0025616256538374296
109.064934 0.01672557281012151
115.054176 0.0030973090732417307
117.069908 0.002691912997122778
118.660713 0.0027116377741938664
121.052147 0.01063009762207431
121.064987 0.0097648027963505
122.060471 0.00790548302085999
122.072479 0.015589321836210642
123.067863 0.10158519728151046
124.075737 0.035375868603916616
128.062088 0.00893324772087987
130.077682 0.0036101532770900346
132.044189 0.012409999216199648
134.059982 0.003805843828558467
136.075745 0.23208224609150946
136.220108 0.002345691252217091
143.085449 0.004278200332102957
145.064819 0.04873888599649833
145.101807 0.009229119376946199
147.080521 0.06723190264680555
151.039108 0.008578201733600275
155.085663 0.008136470541824054
158.072769 0.022669997731650637
161.05925 0.02477483907436812
161.095856 0.004651413877211187
164.070465 0.048872806851349405
165.078033 0.004547080187966744
171.080475 0.018079834477975988
173.096146 0.009050558237144766
173.621979 0.002423033141258991
174.067535 0.003631954346484396
185.398483 0.0020544912538781246
187.075821 0.017294995979778988
188.082886 0.025527495041554396
189.090683 0.030545893586903995
199.075317 0.0032146195895066264
201.090927 0.11388619115073831
215.070755 0.015533261943482285
216.077927 0.0634582413492578
217.085907 0.9514630334319399
229.085648 0.0431780560816938
257.082886 0.003273793920719892
330.51178 0.002328042767469275
379.386047 0.0021121083658489363
380.148895 1.0
END IONS

BEGIN IONS
CHARGE=1+
PRECURSORTYPE=2M+H
FORMULA=C17H21ClN2O5
ONTOLOGY=
INCHIKEY=MCMRXZPGLBSFTP-UHFFFAOYSA-N
INCHI=InChI=1S/C17H21ClN2O5/c1-4-5-6-25-16(22)13-9(2)19-17(23)20-14(13)10-7-11(18)15(21)12(8-10)24-3/h7-8,14,21H,4-6H2,1-3H3,(H2,19,20,23)
SMILES=CCCCOC(=O)C1=C(C)N=C(O)NC1c1cc(Cl)c(O)c(OC)c1
IONMODE=positive
INSTRUMENTTYPE=LC-ESI-Orbitrap
INSTRUMENT=Orbitrap
COMMENT=DB#=CCMSLIB00010123227; origin=GNPS
NUM_PEAKS=73
COMPOUND_NAME="butyl 6-(3-chloro-4-hydroxy-5-methoxyphenyl)-4-methyl-2-oxo-1,3,6-trihydropyri midine-5-carboxylate "
PRECURSOR_MZ=737.235
COLLISION_ENERGY=205060
PARENT_MASS=736.2277235480093
52.062199 0.0037984109831411916
57.07029 0.016490389191549878
60.044842 0.0036337982430109574
61.040051 0.008884608708797823
78.259422 0.004356078633378313
82.400124 0.003555411223901322
84.044693 0.050520433816160046
96.457863 0.0040290927822352616
102.054703 0.005620349270160862
110.023529 0.00920375585802991
115.054131 0.024819569879228
116.062241 0.004921584985526397
117.070137 0.005941736048510366
118.656517 0.004877912217736743
122.999527 0.005571077429577662
126.994217 0.021632577645141964
131.049393 0.005315759710191992
136.00618 0.006413177977726888
136.213501 0.0046864239281974905
137.015137 0.01730561419029009
137.0345 0.07629184607029076
143.04863 0.0053213587829855375
143.997055 0.006770398821955084
144.056717 0.015405288884160782
145.064911 0.024500422729995912
149.01532 0.024142082071209006
150.994507 0.017348167143521033
155.045074 0.1738086572863534
158.117722 0.0808248554039451
159.020508 0.022947239937066422
159.044327 0.00756434734407982
164.025574 0.004703221146578127
165.010025 0.02882626637028908
167.997971 0.0067345647560763935
173.059189 0.006251924681272781
174.068085 0.05651480114892974
177.010071 0.09729060867520338
178.989151 0.08256840667185514
179.025833 0.0059865286308587295
183.02066 0.01815555344035028
185.000397 0.004730096695987144
186.031403 0.12356145822251835
187.015457 0.028338027222691922
189.077835 0.0339236622415328
191.996979 0.008915963516441677
192.020599 0.026992010123123612
193.005005 0.029086063347909585
194.013412 0.019989809687515746
195.992371 0.005796160155878187
196.987961 0.00707946764015879
207.020828 0.02310961304807924
209.039017 0.032389516296101366
211.01564 0.354725897391392
211.107483 0.11831960627320116
212.010834 0.14339561368637355
218.056992 0.015778187132210904
219.992432 0.08480803578927329
220.014633 0.00879166410042497
220.999786 0.07441167742621822
224.047256 0.21699318592841024
235.015472 1.0
237.017715 0.006676334399023522
238.002853 0.03626183504011736
245.995743 0.0057244920241208055
252.041992 0.1266521464045554
253.026047 0.45079478838304377
295.047302 0.029971836663848467
309.088165 0.1753159276823758
326.114105 0.04338273581894838
369.120941 0.9360630679559465
381.07077 0.004637152087614291
410.147552 0.03153957704604118
561.138977 0.0050772392091869584
END IONS

BEGIN IONS
CHARGE=1+
PRECURSORTYPE=2M+H
FORMULA=C16H19N3O4S
ONTOLOGY=
INCHIKEY=AVKUERGKIZMTKX-UHFFFAOYSA-N
INCHI=InChI=1S/C16H19N3O4S/c1-16(2)11(15(22)23)19-13(21)10(14(19)24-16)18-12(20)9(17)8-6-4-3-5-7-8/h3-7,9-11,14H,17H2,1-2H3,(H,18,20)(H,22,23)/t9?,10-,11+,14-/m1/s1
SMILES=CC1(C)SC2C(N=C(O)C(N)c3ccccc3)C(=O)N2C1C(=O)O
IONMODE=positive
INSTRUMENTTYPE=LC-ESI-Orbitrap
INSTRUMENT=Orbitrap
COMMENT=DB#=CCMSLIB00010124069; origin=GNPS
NUM_PEAKS=127
COMPOUND_NAME=Ampicillin
PRECURSOR_MZ=699.227
COLLISION_ENERGY=205060
PARENT_MASS=698.2197235480093
51.249439 0.0020279839191918686
53.03886 0.003923571610986
54.583401 0.0019922181136863186
58.995399 0.009122162814731246
61.506008 0.002301560957795722
62.006432 0.0032590805929092093
66.752769 0.002422662720296969
68.566002 0.002545646893614298
69.04512 0.02161948822269673
70.065567 0.051955165994123115
72.081047 0.005368635647464612
74.006104 0.009211891063631133
75.026649 0.07929028092471549
77.891823 0.002203048125087454
79.054512 0.05831583214166271
82.0653 0.005029174230297904
85.010963 0.0025067437367486123
86.016273 0.002536862309805917
87.020462 0.005805982427067561
87.026489 0.16637813491991282
89.016907 0.00951370426447621
91.054367 0.16103836290496146
91.059372 0.0024245451311130507
94.065361 0.0052820447499248606
100.039223 0.005366125766376503
103.054314 0.004541629828932779
104.049767 0.002939070754175344
104.300537 0.0026792980615560884
105.037163 0.0025851775207520107
106.06514 1.0
113.034653 0.009902108362861038
114.037216 0.24846191349569335
115.02124 0.03691784092499158
116.049294 0.0023975639094158817
116.070427 0.023420327903414757
118.055481 0.005846767994749329
118.065086 0.16612275451919778
120.080811 0.036612262902514334
126.037163 0.019997477569506452
128.052673 0.033873355165115665
130.065155 0.057165051662764844
132.04454 0.011979662433543054
132.080719 0.002728240742774209
133.03215 0.010186352396089355
134.060242 0.009894578719596713
142.032043 0.010523303932167953
143.063721 0.014380363694319073
144.047607 0.0033431616093608525
145.07605 0.05554429595011862
146.059998 0.13760736800692225
154.032166 0.03379680379192835
156.067978 0.004086086411441042
157.07608 0.07602618056963006
157.089935 0.004079184238448743
158.060226 0.04244083425937488
160.042618 0.2802206938440774
161.071426 0.004444999407040593
162.036636 0.003029426473347259
163.086548 0.09531900902364998
164.070419 0.014167023801829829
169.075653 0.021970244104759926
170.059677 0.002664238775027436
171.058121 0.0029974254894738726
171.090897 0.0040691447140963075
172.042374 0.010458047023877126
173.070877 0.16432065989793568
174.038666 0.003993848281453045
174.054733 0.02885296551862614
175.086349 0.00576394191884174
183.055435 0.005132079354910363
185.070831 0.0770219758913372
186.055588 0.0030783691545653797
187.086197 0.003538304863961308
189.068573 0.027220915341083427
190.097488 0.0052280823065305225
191.081345 0.039167949320481066
199.053696 0.003737840410465953
200.037766 0.05822171160085863
200.057892 0.009062553138888662
201.06572 0.09097942462230996
203.081039 0.01607139607743234
206.093765 0.0049325438084057175
208.108185 0.07272380452795098
208.129593 0.0043929193744623365
213.06575 0.08590820988378622
214.072952 0.004969564554455321
214.097626 0.004222247460470942
215.080627 0.019891435093533857
216.082733 0.002556941358510787
217.041382 0.00765764719981979
217.063385 0.04748632271674549
218.027039 0.02473613306385577
218.092499 0.010320003564031146
234.090103 0.0038532949405189554
241.060837 0.016188733018301427
248.102966 0.07104720396109433
259.07074 0.07001438789333758
279.11438 0.003166842462921213
287.083771 0.018586924397989334
289.10022 0.0052280823065305225
296.139862 0.012952868825457223
304.110413 0.0030840163870136245
305.094177 0.010029484828082557
306.125122 0.004035888789678867
308.138336 0.002481644925867525
324.095093 0.002535607369261863
324.135803 0.01626340198067266
333.089844 0.29444607238120574
334.119415 0.00969880799472423
336.13562 0.0038595696432392273
350.115997 0.07025596394806805
353.159821 0.054706623136962326
363.147797 0.005066822446619535
364.128967 0.05548531374454807
367.146332 0.014546643316406278
376.096588 0.003035701176067531
381.155945 0.07057911113816205
390.114685 0.012041154520201719
391.140106 0.015266979188693488
407.137695 0.15394292906887805
424.309296 0.002555686417966733
512.194153 0.019679350141588666
522.186707 0.02589130583465782
540.190796 0.1507064374057618
566.172058 0.025672946179992356
571.227417 0.0035608937937542866
699.223877 0.056060703983997
END IONS

BEGIN IONS
CHARGE=1+
PRECURSORTYPE=2M+H
FORMULA=C6H6N4O2S
ONTOLOGY=
INCHIKEY=ABNKHLJAVYVWBF-UHFFFAOYSA-N
INCHI=InChI=1S/C6H6N4O2S/c1-13-6-9-3-2(4(11)10-6)7-5(12)8-3/h1H3,(H3,7,8,9,10,11,12)
SMILES=CSc1nc(O)c2nc(O)[nH]c2n1
IONMODE=positive
INSTRUMENTTYPE=LC-ESI-Orbitrap
INSTRUMENT=Orbitrap
COMMENT=DB#=CCMSLIB00010124128; origin=GNPS
NUM_PEAKS=16
COMPOUND_NAME="2-methylthiopurine-6,8-diol "
PRECURSOR_MZ=397.05
COLLISION_ENERGY=205060
PARENT_MASS=396.04272354800923
51.690739 0.008502456740012819
67.202499 0.007847326069928079
67.831772 0.008317311115858435
70.040817 0.009962258776614684
73.953423 0.008655557929217404
74.006622 0.017004913480025637
90.349892 0.008171330912198248
98.035027 0.017866552730897958
123.030243 0.01697999003062024
143.039307 0.04002705974506872
151.025192 0.08301644947660757
169.035904 0.07700277718436231
171.033554 0.19040091148614968
197.874817 0.00989816990671509
199.028397 1.0
209.763641 0.018660542619098483
END IONS

BEGIN IONS
CHARGE=1+
PRECURSORTYPE=2M+H
FORMULA=C26H29N5O2
ONTOLOGY=
INCHIKEY=SBHHPPCAAYCRQS-UHFFFAOYSA-N
INCHI=InChI=1S/C26H29N5O2/c1-28-22-21(23(32)29(2)25(28)33)31-15-20(26-11-17-8-18(12-26)10-19(9-17)13-26)30(24(31)27-22)14-16-6-4-3-5-7-16/h3-7,15,17-19H,8-14H2,1-2H3
SMILES=Cn1c(=O)c2c(nc3n(Cc4ccccc4)c(C45CC6CC(CC(C6)C4)C5)cn23)n(C)c1=O
IONMODE=positive
INSTRUMENTTYPE=LC-ESI-Orbitrap
INSTRUMENT=Orbitrap
COMMENT=DB#=CCMSLIB00010118682; origin=GNPS
NUM_PEAKS=32
COMPOUND_NAME="7-adamantanyl-1,3-dimethyl-8-benzyl-1,3,5-trihydro-4-imidazolino[1,2-h]purine- 2,4-dione "
PRECURSOR_MZ=887.472
COLLISION_ENERGY=205060
PARENT_MASS=886.4647235480093
62.011978 0.00387961502614735
65.038857 0.027349986956093454
67.054443 0.024972856767081292
73.94873 0.004121008483410424
79.05452 0.0811569133245941
81.069901 0.01825497427481833
82.393639 0.004181627468193976
91.054314 0.7074993261550352
93.069908 0.12391169978880778
107.085274 0.10316376976476586
135.116608 0.5538323646924723
136.20314 0.005426481619999069
138.906952 0.004143740602704256
139.717194 0.004524774221343728
150.921387 0.004603795397936573
198.755432 0.004495547210823086
199.534103 0.004590805615482954
232.081909 0.03535494039313577
239.093216 0.004733693222472757
249.8638 0.003941316492802036
260.261902 0.004308277847116755
274.371643 0.0043872990237096
276.971283 0.004295288064663137
280.118042 0.0045063720295344355
295.154175 0.008140263670934171
296.113037 0.03694077633434834
297.241028 0.00414915301205993
308.111786 0.004337504857637397
310.1315 0.007502681848835737
352.176086 0.07435676221012488
353.183136 0.02061803219950574
444.238342 1.0
END IONS

BEGIN IONS
CHARGE=1+
PRECURSORTYPE=2M+H
FORMULA=C18H23NO4
ONTOLOGY=
INCHIKEY=QJBUAXNMSWORKG-UHFFFAOYSA-N
INCHI=InChI=1S/C18H23NO4/c1-20-15-8-13(9-16(10-15)21-2)11-19-12-14-6-5-7-17(22-3)18(14)23-4/h5-10,19H,11-12H2,1-4H3
SMILES=COc1cc(CNCc2cccc(OC)c2OC)cc(OC)c1
IONMODE=positive
INSTRUMENTTYPE=LC-ESI-Orbitrap
INSTRUMENT=Orbitrap
COMMENT=DB#=CCMSLIB00010115401; origin=GNPS
NUM_PEAKS=29
COMPOUND_NAME="bis[(3,5-dimethoxyphenyl)methyl]amine "
PRECURSOR_MZ=635.333
COLLISION_ENERGY=205060
PARENT_MASS=634.3257235480093
53.038952 0.0025830830663082257
57.685219 0.0023640588232084637
65.038963 0.003878521827987245
71.952347 0.002692205465005616
76.834312 0.0026586892996914176
78.046883 0.0025043590501051083
91.054367 0.06729188604815571
92.365913 0.0036953520873166256
93.069946 0.012871766372062173
104.276047 0.0028067839836378758
109.064568 0.004734353212056778
121.064957 0.029304820170184175
123.080643 0.02432494156105827
135.043961 0.05227898232450975
135.080795 0.005392984832766027
136.051941 1.0
139.075317 0.01371356773344204
151.075333 0.2537516670395015
157.948517 0.0025893186319480765
165.09108 0.035870091343242164
166.085953 0.0039985564665543745
180.10025 0.002727280521729777
238.099152 0.012400201720548449
242.74559 0.0025480080095840645
254.092819 0.003845785108378028
269.117126 0.00977502858617123
301.143158 0.08830963948297807
318.169495 0.4958724452692712
662.765442 0.002707014933400262
END IONS

BEGIN IONS
CHARGE=1+
PRECURSORTYPE=2M+H
FORMULA=C22H23ClN2O6
ONTOLOGY=
INCHIKEY=ZXCTXNAJJZYGNM-UHFFFAOYSA-N
INCHI=InChI=1S/C22H23ClN2O6/c1-13-18(21(27)31-10-9-30-15-7-5-4-6-8-15)19(24-22(28)25(13)2)14-11-16(23)20(26)17(12-14)29-3/h4-8,11-12,19,26H,9-10H2,1-3H3,(H,24,28)
SMILES=COc1cc(C2N=C(O)N(C)C(C)=C2C(=O)OCCOc2ccccc2)cc(Cl)c1O
IONMODE=positive
INSTRUMENTTYPE=LC-ESI-Orbitrap
INSTRUMENT=Orbitrap
COMMENT=DB#=CCMSLIB00010121961; origin=GNPS
NUM_PEAKS=58
COMPOUND_NAME="2-phenoxyethyl 6-(3-chloro-4-hydroxy-5-methoxyphenyl)-3,4-dimethyl-2-oxo-1,3,6 -trihydropyrimidine-5-carboxylate "
PRECURSOR_MZ=893.256
COLLISION_ENERGY=205060
PARENT_MASS=892.2487235480093
64.543289 0.004723586841614328
65.038887 0.006824202474970462
66.750526 0.00527952241776009
74.136124 0.004436291275418195
75.055481 0.03569927243330639
82.406303 0.00498725203656489
85.924316 0.005061874261550898
91.054337 0.036322368011939554
92.385559 0.00638517505130278
93.070023 0.09429388719606989
94.028954 0.008676077358373235
95.049057 0.009515577389465828
98.060043 0.7929370064050744
103.054024 0.010474472980536036
111.042923 0.007506995833592438
112.038803 0.0055369690939618185
116.069939 0.009161121820782289
121.064659 0.21373919532367391
142.050491 0.012966855295068715
149.014236 0.006954791368695977
151.049942 0.13399664199987563
154.580093 0.006315527641315839
165.009796 0.0071090106336670605
168.993073 0.036746470990610035
169.060577 0.15450531683353025
171.020706 0.011994278962751072
175.015457 0.006801815807474659
177.010101 0.024412660904172625
178.988358 0.008620110689633729
183.82077 0.005069336484049499
184.015854 0.022845594179466452
184.99913 0.09044711149804116
194.010666 0.00546234686897581
196.98735 0.09250792861140476
206.036209 0.010450842609290467
209.036758 0.048544244760897956
211.015182 0.04873701884211181
212.010513 1.0
219.991516 0.04407064237298675
220.013321 0.007674895839810957
224.046539 0.022568248243268453
234.029892 0.005116597226540638
235.01506 0.29601268577824763
235.042511 0.010008084074373483
236.127686 0.47070580187799266
238.062683 0.03180150488153722
251.032242 0.006531932093775263
262.10672 0.10145637709097693
266.057068 0.05686711025433742
279.039917 0.006937379516199241
289.117493 0.14954045146446115
309.063019 0.3433244201231267
310.082031 0.011700764877806106
327.912933 0.005231017971519184
353.08963 0.028753186990858777
404.126373 0.08345003420185312
447.13089 0.8746495864685032
501.642731 0.006334183197562341
END IONS

BEGIN IONS
CHARGE=1+
PRECURSORTYPE=2M+H
FORMULA=C14H15NO4
ONTOLOGY=
INCHIKEY=SXNFVFUSWREOIQ-UHFFFAOYSA-N
INCHI=InChI=1S/C14H15NO4/c1-3-9-12(16)10-7-8(14(18)19-4-2)5-6-11(10)15-13(9)17/h5-7H,3-4H2,1-2H3,(H2,15,16,17)
SMILES=CCOC(=O)c1ccc2nc(O)c(CC)c(O)c2c1
IONMODE=positive
INSTRUMENTTYPE=LC-ESI-Orbitrap
INSTRUMENT=Orbitrap
COMMENT=DB#=CCMSLIB00010116920; origin=GNPS
NUM_PEAKS=17
COMPOUND_NAME=ethyl 3-ethyl-4-hydroxy-2-oxohydroquinoline-6-carboxylate
PRECURSOR_MZ=523.208
COLLISION_ENERGY=205060
PARENT_MASS=522.2007235480093
50.981178 0.008102486174082008
83.592857 0.007404962383538438
130.06456 0.00896193513028748
154.06543 0.014775671366648398
164.034378 0.020153455233919586
172.076172 0.08724652483682925
191.815079 0.007420532111005929
198.05481 0.057069279059339346
216.065643 0.17609984554830352
218.044937 0.015800159434009267
219.055313 0.008186562702406457
232.343323 0.008354715759055354
234.076172 0.9751600567983658
262.1073 1.0
274.714203 0.010238652782621692
274.748749 0.007968586517861592
460.368408 0.00808380250112102
END IONS

