BEGIN IONS
CHARGE=1+
PRECURSORTYPE=2M+H
FORMULA=C23H26N2O3
ONTOLOGY=
INCHIKEY=VLONLABMZBDAOH-UHFFFAOYSA-N
INCHI=InChI=1S/C23H26N2O3/c1-17-3-5-18(6-4-17)15-24-9-11-25(12-10-24)16-19-13-23(26)28-22-8-7-20(27-2)14-21(19)22/h3-8,13-14H,9-12,15-16H2,1-2H3
SMILES=COc1ccc2oc(=O)cc(CN3CCN(Cc4ccc(C)cc4)CC3)c2c1
IONMODE=positive
INSTRUMENTTYPE=LC-ESI-Orbitrap
INSTRUMENT=Orbitrap
COMMENT=DB#=CCMSLIB00010105925; origin=GNPS
NUM_PEAKS=23
COMPOUND_NAME=6-methoxy-4-({4-[(4-methylphenyl)methyl]piperazinyl}methyl)chromen-2-one
PRECURSOR_MZ=757.396
COLLISION_ENERGY=102040
PARENT_MASS=756.3887235480092
59.883499 0.003680850430736644
66.752037 0.0033546433266953128
69.752136 0.004095221616951308
77.677917 0.0036830545327909774
79.054451 0.004768574794550137
82.408287 0.0038737093604908094
83.041481 0.0036114212160251445
83.060448 0.018317190122537054
88.093147 0.0035772576341829778
92.387627 0.005503642829670299
92.889893 0.003301744877391313
105.069817 0.5098914589943343
157.991852 0.0037282386249048102
190.295197 0.003607013011916478
212.203873 0.0038483621868659764
220.655762 0.003544196103367978
228.99794 0.003622441726296811
250.134308 0.003503420215362812
273.122986 0.018916705881315717
275.139099 0.007641621822373619
379.200836 1.0
397.701172 0.004064364188190642
400.919891 0.003945342677256642
END IONS

BEGIN IONS
CHARGE=1+
PRECURSORTYPE=2M+H
FORMULA=C6H7N5
ONTOLOGY=
INCHIKEY=FSASIHFSFGAIJM-UHFFFAOYSA-N
INCHI=InChI=1S/C6H7N5/c1-11-3-10-5(7)4-6(11)9-2-8-4/h2-3H,7H2,1H3
SMILES=Cn1cnc(N)c2ncnc1-2
IONMODE=positive
INSTRUMENTTYPE=LC-ESI-Orbitrap
INSTRUMENT=Orbitrap
COMMENT=DB#=CCMSLIB00010126910; origin=GNPS
NUM_PEAKS=6
COMPOUND_NAME=3-methyladenine
PRECURSOR_MZ=299.148
COLLISION_ENERGY=102040
PARENT_MASS=298.14072354800925
54.225201 0.00787440891430787
66.764 0.011322450791004265
69.762604 0.008714889755719272
92.404602 0.01144846862737495
134.546005 0.009172702183016673
150.076996 1.0
END IONS

BEGIN IONS
CHARGE=1+
PRECURSORTYPE=2M+H
FORMULA=C4H7N3O
ONTOLOGY=
INCHIKEY=DDRJAANPRJIHGJ-UHFFFAOYSA-N
INCHI=InChI=1S/C4H7N3O/c1-7-2-3(8)6-4(7)5/h2H2,1H3,(H2,5,6,8)
SMILES=CN1CC(O)=NC1=N
IONMODE=positive
INSTRUMENTTYPE=LC-ESI-Orbitrap
INSTRUMENT=Orbitrap
COMMENT=DB#=CCMSLIB00010103314; origin=GNPS
NUM_PEAKS=11
COMPOUND_NAME=creatinine
PRECURSOR_MZ=227.125
COLLISION_ENERGY=102040
PARENT_MASS=226.11772354800925
54.179699 0.007261096729385024
57.093601 0.007288207159994949
66.761703 0.008432014774592751
81.2071 0.008338963252935977
92.406303 0.0064579489893768155
95.192902 0.0074240984400650335
105.740997 0.007445187207980806
114.066002 1.0
116.587997 0.007420625779375552
117.306 0.008171959843414572
122.453003 0.00844993054678621
END IONS

BEGIN IONS
CHARGE=1+
PRECURSORTYPE=2M+H
FORMULA=C4H7N3O
ONTOLOGY=
INCHIKEY=DDRJAANPRJIHGJ-UHFFFAOYSA-N
INCHI=InChI=1S/C4H7N3O/c1-7-2-3(8)6-4(7)5/h2H2,1H3,(H2,5,6,8)
SMILES=CN1CC(O)=NC1=N
IONMODE=positive
INSTRUMENTTYPE=LC-ESI-Orbitrap
INSTRUMENT=Orbitrap
COMMENT=DB#=CCMSLIB00010126930; origin=GNPS
NUM_PEAKS=11
COMPOUND_NAME=creatinine
PRECURSOR_MZ=227.125
COLLISION_ENERGY=102040
PARENT_MASS=226.11772354800925
54.179699 0.007261096729385024
57.093601 0.007288207159994949
66.761703 0.008432014774592751
81.2071 0.008338963252935977
92.406303 0.0064579489893768155
95.192902 0.0074240984400650335
105.740997 0.007445187207980806
114.066002 1.0
116.587997 0.007420625779375552
117.306 0.008171959843414572
122.453003 0.00844993054678621
END IONS

BEGIN IONS
CHARGE=1+
PRECURSORTYPE=2M+H
FORMULA=C9H13N3O4
ONTOLOGY=
INCHIKEY=CKTSBUTUHBMZGZ-SHYZEUOFSA-N
INCHI=InChI=1S/C9H13N3O4/c10-7-1-2-12(9(15)11-7)8-3-5(14)6(4-13)16-8/h1-2,5-6,8,13-14H,3-4H2,(H2,10,11,15)/t5-,6+,8+/m0/s1
SMILES=N=c1ccn([C@H]2C[C@H](O)[C@@H](CO)O2)c(O)n1
IONMODE=positive
INSTRUMENTTYPE=LC-ESI-Orbitrap
INSTRUMENT=Orbitrap
COMMENT=DB#=CCMSLIB00010103329; origin=GNPS
NUM_PEAKS=18
COMPOUND_NAME=2'-deoxycytidine
PRECURSOR_MZ=455.189
COLLISION_ENERGY=102040
PARENT_MASS=454.18172354800924
52.7967 0.0015029357827681617
55.167301 0.0015849929219483945
60.930801 0.0015627211891126697
68.805496 0.0016060340389936298
95.024498 0.002322586223537739
100.788002 0.001958416446818094
112.051003 1.0
117.055 0.006348328614632263
118.672997 0.0018849776397915192
151.209 0.001545601151792034
157.179001 0.0019127630139630653
157.996994 0.001734122643330545
173.378998 0.0016326933595006757
228.098007 0.2705291808763915
339.140015 0.0027101578083778394
344.14801 0.002291889196319413
455.187988 0.07649966218390065
455.259003 0.0030894006177208675
END IONS

BEGIN IONS
CHARGE=1+
PRECURSORTYPE=2M+H
FORMULA=C16H12O2
ONTOLOGY=
INCHIKEY=OPHKKQQCOYMLPW-UHFFFAOYSA-N
INCHI=InChI=1S/C16H12O2/c1-11-6-8-12(9-7-11)16-10-14(17)13-4-2-3-5-15(13)18-16/h2-10H,1H3
SMILES=Cc1ccc(-c2cc(=O)c3ccccc3o2)cc1
IONMODE=positive
INSTRUMENTTYPE=LC-ESI-Orbitrap
INSTRUMENT=Orbitrap
COMMENT=DB#=CCMSLIB00010103610; origin=GNPS
NUM_PEAKS=16
COMPOUND_NAME=4'-Methylflavone
PRECURSOR_MZ=473.175
COLLISION_ENERGY=102040
PARENT_MASS=472.16772354800923
54.02586 0.0027761706348241677
58.786629 0.0022569149013754444
64.977737 0.004120012252101576
74.049797 0.0026682354542758376
93.095642 0.002444585981067586
104.55423 0.002686710845540867
106.526932 0.0022890037388357586
113.972633 0.002506818877960317
118.657356 0.002836458753689001
135.587677 0.002349291857700592
136.089081 0.002381380695160906
237.091049 1.0
320.283569 0.002711992959903539
375.459503 0.0026293398937178806
397.295654 0.002502929321904521
472.961456 0.006181476961673287
END IONS

BEGIN IONS
CHARGE=1+
PRECURSORTYPE=2M+H
FORMULA=C10H16N2O3S
ONTOLOGY=
INCHIKEY=YBJHBAHKTGYVGT-ZKWXMUAHSA-N
INCHI=InChI=1S/C10H16N2O3S/c13-8(14)4-2-1-3-7-9-6(5-16-7)11-10(15)12-9/h6-7,9H,1-5H2,(H,13,14)(H2,11,12,15)/t6-,7-,9-/m0/s1
SMILES=O=C(O)CCCC[C@@H]1SC[C@@H]2N=C(O)N[C@H]12
IONMODE=positive
INSTRUMENTTYPE=LC-ESI-Orbitrap
INSTRUMENT=Orbitrap
COMMENT=DB#=CCMSLIB00010102889; origin=GNPS
NUM_PEAKS=21
COMPOUND_NAME=biotin
PRECURSOR_MZ=489.184
COLLISION_ENERGY=102040
PARENT_MASS=488.17672354800925
66.749001 0.0006775872760223638
72.813202 0.0007889758140398887
82.405998 0.0008065043308535027
97.040001 0.007202325464175358
104.294998 0.0007931603865636073
123.026001 0.0011798889414355229
139.057999 0.0017336643093777465
143.028 0.001039163840173256
150.091003 0.0008464365224679902
157.990005 0.00086103190952998
166.067993 0.0053285880568518535
167.052994 0.0076497094373714405
184.078995 0.00547572877116993
192.046997 0.0015355165508304865
199.089996 0.007861087340359016
209.074005 0.011149088866134454
227.085007 0.5982339135714092
245.095001 1.0
392.502014 0.000891355371113749
489.183014 0.018175376278804244
489.304993 0.0010777838840309178
END IONS

BEGIN IONS
CHARGE=1+
PRECURSORTYPE=2M+H
FORMULA=C10H16N2O3S
ONTOLOGY=
INCHIKEY=YBJHBAHKTGYVGT-ZKWXMUAHSA-N
INCHI=InChI=1S/C10H16N2O3S/c13-8(14)4-2-1-3-7-9-6(5-16-7)11-10(15)12-9/h6-7,9H,1-5H2,(H,13,14)(H2,11,12,15)/t6-,7-,9-/m0/s1
SMILES=O=C(O)CCCC[C@@H]1SC[C@@H]2N=C(O)N[C@H]12
IONMODE=positive
INSTRUMENTTYPE=LC-ESI-Orbitrap
INSTRUMENT=Orbitrap
COMMENT=DB#=CCMSLIB00010102957; origin=GNPS
NUM_PEAKS=11
COMPOUND_NAME=biotin
PRECURSOR_MZ=489.184
COLLISION_ENERGY=102040
PARENT_MASS=488.17672354800925
55.1964 0.0064532657317801076
57.583302 0.00652595741625254
92.408203 0.006906357094474512
117.514 0.007441603122547935
142.009995 0.00782447739573064
214.593002 0.007800333983864153
227.084 0.5411229369119235
245.095001 1.0
421.207001 0.007568624294978841
468.778015 0.007888591567242755
489.187012 0.008638378635763099
END IONS

BEGIN IONS
CHARGE=1+
PRECURSORTYPE=2M+H
FORMULA=C10H16N2O3S
ONTOLOGY=
INCHIKEY=YBJHBAHKTGYVGT-ZKWXMUAHSA-N
INCHI=InChI=1S/C10H16N2O3S/c13-8(14)4-2-1-3-7-9-6(5-16-7)11-10(15)12-9/h6-7,9H,1-5H2,(H,13,14)(H2,11,12,15)/t6-,7-,9-/m0/s1
SMILES=O=C(O)CCCC[C@@H]1SC[C@@H]2N=C(O)N[C@H]12
IONMODE=positive
INSTRUMENTTYPE=LC-ESI-Orbitrap
INSTRUMENT=Orbitrap
COMMENT=DB#=CCMSLIB00010126504; origin=GNPS
NUM_PEAKS=21
COMPOUND_NAME=biotin
PRECURSOR_MZ=489.184
COLLISION_ENERGY=102040
PARENT_MASS=488.17672354800925
66.749001 0.0006775872760223638
72.813202 0.0007889758140398887
82.405998 0.0008065043308535027
97.040001 0.007202325464175358
104.294998 0.0007931603865636073
123.026001 0.0011798889414355229
139.057999 0.0017336643093777465
143.028 0.001039163840173256
150.091003 0.0008464365224679902
157.990005 0.00086103190952998
166.067993 0.0053285880568518535
167.052994 0.0076497094373714405
184.078995 0.00547572877116993
192.046997 0.0015355165508304865
199.089996 0.007861087340359016
209.074005 0.011149088866134454
227.085007 0.5982339135714092
245.095001 1.0
392.502014 0.000891355371113749
489.183014 0.018175376278804244
489.304993 0.0010777838840309178
END IONS

BEGIN IONS
CHARGE=1+
PRECURSORTYPE=2M+H
FORMULA=C10H16N2O3S
ONTOLOGY=
INCHIKEY=YBJHBAHKTGYVGT-ZKWXMUAHSA-N
INCHI=InChI=1S/C10H16N2O3S/c13-8(14)4-2-1-3-7-9-6(5-16-7)11-10(15)12-9/h6-7,9H,1-5H2,(H,13,14)(H2,11,12,15)/t6-,7-,9-/m0/s1
SMILES=O=C(O)CCCC[C@@H]1SC[C@@H]2N=C(O)N[C@H]12
IONMODE=positive
INSTRUMENTTYPE=LC-ESI-Orbitrap
INSTRUMENT=Orbitrap
COMMENT=DB#=CCMSLIB00010126572; origin=GNPS
NUM_PEAKS=11
COMPOUND_NAME=biotin
PRECURSOR_MZ=489.184
COLLISION_ENERGY=102040
PARENT_MASS=488.17672354800925
55.1964 0.0064532657317801076
57.583302 0.00652595741625254
92.408203 0.006906357094474512
117.514 0.007441603122547935
142.009995 0.00782447739573064
214.593002 0.007800333983864153
227.084 0.5411229369119235
245.095001 1.0
421.207001 0.007568624294978841
468.778015 0.007888591567242755
489.187012 0.008638378635763099
END IONS

BEGIN IONS
CHARGE=1+
PRECURSORTYPE=2M+H
FORMULA=C16H19N3O4S
ONTOLOGY=
INCHIKEY=AVKUERGKIZMTKX-UHFFFAOYSA-N
INCHI=InChI=1S/C16H19N3O4S/c1-16(2)11(15(22)23)19-13(21)10(14(19)24-16)18-12(20)9(17)8-6-4-3-5-7-8/h3-7,9-11,14H,17H2,1-2H3,(H,18,20)(H,22,23)/t9?,10-,11+,14-/m1/s1
SMILES=CC1(C)SC2C(N=C(O)C(N)c3ccccc3)C(=O)N2C1C(=O)O
IONMODE=positive
INSTRUMENTTYPE=LC-ESI-Orbitrap
INSTRUMENT=Orbitrap
COMMENT=DB#=CCMSLIB00010112746; origin=GNPS
NUM_PEAKS=102
COMPOUND_NAME=Ampicillin
PRECURSOR_MZ=699.227
COLLISION_ENERGY=102040
PARENT_MASS=698.2197235480093
68.973183 0.0014760051089131353
69.044891 0.0022174949760901124
70.065613 0.007748372950658884
74.550362 0.0015644956691935154
75.02655 0.01640998591997489
79.054367 0.01054432592424685
87.026459 0.03302615920454397
91.054451 0.010781027275144614
103.192207 0.002015666752396438
106.065102 0.532207948457518
114.037163 0.041670771524347984
115.021187 0.014443577459754232
116.070534 0.013664598980832858
118.064697 0.015467103743194292
120.080887 0.014024228105125042
126.036781 0.0021926478729571977
128.052612 0.011372562695344002
130.065628 0.0030335261526658326
132.788925 0.0018495834840869562
133.031723 0.0042780608797618165
134.060196 0.001921073394855342
139.087234 0.0020248209482875115
143.064026 0.0033783341978962786
145.076035 0.009988535459431656
146.059753 0.0366368356124375
150.05896 0.0032440726581605297
151.085587 0.0024999673064432463
154.032059 0.0031638644655911214
157.076553 0.004019563824361495
158.059845 0.010888262141297194
160.042633 0.24202516967955956
163.070908 0.0019267402780260067
163.086456 0.05958727653953959
164.070419 0.007433642977641966
171.058563 0.0020226413778372558
172.042526 0.0027737213549953576
173.070831 0.08478877782766572
174.055634 0.02354110451912137
175.086227 0.013367741485508036
185.070755 0.01694833982118804
187.053024 0.0025195834404955473
189.068588 0.02890459148311051
190.097107 0.01436598475172513
191.081512 0.06047000257189313
191.100266 0.0022344956256021065
200.037491 0.04747976268836938
201.06575 0.09866697471262363
203.08139 0.010085744301513058
208.107864 0.06997903253226855
213.065674 0.056446079606631124
213.376892 0.0019106114566941148
214.09697 0.00329420277851641
215.080978 0.0037588871985109176
217.040161 0.007416206414039921
217.063705 0.057572917529413306
218.027512 0.0142779301055348
218.09201 0.011774911400461198
219.075836 0.0024511449283575195
231.074203 0.003080604874391355
241.060211 0.027413329381045584
248.102707 0.09097962973457191
251.116928 0.0030548859430783383
255.112152 0.0029058033242808506
256.11853 0.0018644045631486946
259.070862 0.08466279865564094
261.103912 0.002271984237346504
278.129211 0.002616356368486899
279.113525 0.002683487138354773
287.084167 0.023754702423246427
289.099762 0.010968470333866602
296.138702 0.008121951325832705
305.095154 0.010156362384101341
306.123718 0.010771001251073439
307.109192 0.002422810512504196
308.137878 0.0037004747104440656
322.119781 0.003327332249360296
324.137299 0.012685971848668064
333.089844 0.3149723412509863
334.118011 0.010579634965540992
336.132996 0.004151645793646988
350.116882 0.05824117382946169
353.160889 0.054341050465774206
363.144989 0.01528184025492256
364.12851 0.05400016564735422
367.143982 0.013433128599015706
376.095764 0.0029899347436607195
381.15506 0.08282454893789531
390.109131 0.01317681111406564
391.137787 0.01688644002040078
407.137573 0.13950732989542422
512.196899 0.020569914081332852
522.178894 0.023395509213044292
523.164856 0.0031411969329084625
540.190552 0.35924987903384004
550.177612 0.0041852111785809255
556.589661 0.0020775665531836984
566.172302 0.024004045282755675
571.228149 0.008523864116859849
671.223877 0.0025902015230838305
681.21698 0.0021656211993740272
699.225769 1.0
699.719971 0.015631007441053515
END IONS

BEGIN IONS
CHARGE=1+
PRECURSORTYPE=2M+H
FORMULA=C6H6N4O2S
ONTOLOGY=
INCHIKEY=ABNKHLJAVYVWBF-UHFFFAOYSA-N
INCHI=InChI=1S/C6H6N4O2S/c1-13-6-9-3-2(4(11)10-6)7-5(12)8-3/h1H3,(H3,7,8,9,10,11,12)
SMILES=CSc1nc(O)c2nc(O)[nH]c2n1
IONMODE=positive
INSTRUMENTTYPE=LC-ESI-Orbitrap
INSTRUMENT=Orbitrap
COMMENT=DB#=CCMSLIB00010112805; origin=GNPS
NUM_PEAKS=15
COMPOUND_NAME="2-methylthiopurine-6,8-diol "
PRECURSOR_MZ=397.05
COLLISION_ENERGY=102040
PARENT_MASS=396.04272354800923
50.888222 0.006354433375377326
56.46307 0.005470754249086739
60.43335 0.005669644992610831
60.946751 0.005284451527304678
82.387497 0.006875577475497416
136.195328 0.00768121086698741
137.430511 0.006744662049380292
151.024216 0.008731051880272808
155.5327 0.006047285644871766
157.953293 0.00635191577102892
171.033142 0.014881559303429229
199.028366 1.0
226.060562 0.006132884192717578
283.479736 0.005747690727411424
397.163849 0.009151491806456647
END IONS

BEGIN IONS
CHARGE=1+
PRECURSORTYPE=2M+H
FORMULA=C26H29N5O2
ONTOLOGY=
INCHIKEY=SBHHPPCAAYCRQS-UHFFFAOYSA-N
INCHI=InChI=1S/C26H29N5O2/c1-28-22-21(23(32)29(2)25(28)33)31-15-20(26-11-17-8-18(12-26)10-19(9-17)13-26)30(24(31)27-22)14-16-6-4-3-5-7-16/h3-7,15,17-19H,8-14H2,1-2H3
SMILES=Cn1c(=O)c2c(nc3n(Cc4ccccc4)c(C45CC6CC(CC(C6)C4)C5)cn23)n(C)c1=O
IONMODE=positive
INSTRUMENTTYPE=LC-ESI-Orbitrap
INSTRUMENT=Orbitrap
COMMENT=DB#=CCMSLIB00010107347; origin=GNPS
NUM_PEAKS=17
COMPOUND_NAME="7-adamantanyl-1,3-dimethyl-8-benzyl-1,3,5-trihydro-4-imidazolino[1,2-h]purine- 2,4-dione "
PRECURSOR_MZ=887.472
COLLISION_ENERGY=102040
PARENT_MASS=886.4647235480093
62.300701 0.0018494617335713837
78.186829 0.0016547600679537385
79.054398 0.0017082315945699052
81.611557 0.0022964183873477387
87.699547 0.0016768017659481889
91.054314 0.04096408754309356
92.3713 0.001740885961969091
93.069946 0.00814277469057946
107.085243 0.003266661278696046
118.647041 0.0015739405086407539
135.116562 0.13808062526582696
209.841446 0.0038617871245462065
352.176208 0.01795622845321976
444.238342 1.0
447.035797 0.0022996838240876573
624.485046 0.0018894633336353863
642.913757 0.0015890431535628773
END IONS

BEGIN IONS
CHARGE=1+
PRECURSORTYPE=2M+H
FORMULA=C18H23NO4
ONTOLOGY=
INCHIKEY=QJBUAXNMSWORKG-UHFFFAOYSA-N
INCHI=InChI=1S/C18H23NO4/c1-20-15-8-13(9-16(10-15)21-2)11-19-12-14-6-5-7-17(22-3)18(14)23-4/h5-10,19H,11-12H2,1-4H3
SMILES=COc1cc(CNCc2cccc(OC)c2OC)cc(OC)c1
IONMODE=positive
INSTRUMENTTYPE=LC-ESI-Orbitrap
INSTRUMENT=Orbitrap
COMMENT=DB#=CCMSLIB00010104069; origin=GNPS
NUM_PEAKS=26
COMPOUND_NAME="bis[(3,5-dimethoxyphenyl)methyl]amine "
PRECURSOR_MZ=635.333
COLLISION_ENERGY=102040
PARENT_MASS=634.3257235480093
52.795799 0.002412632253927541
55.968891 0.0020140487918621935
72.563171 0.0021656125214958174
91.054489 0.0037599463697572067
103.4132 0.0028367192281908535
118.660889 0.002835990556413769
121.064682 0.0113476055845405
122.977119 0.0020825439389081583
123.080643 0.002706286980092687
135.043884 0.0031289166108018304
136.051926 0.2247996152613017
139.07515 0.008694511644174998
151.075317 0.3248855985309977
161.854263 0.002228278294325104
165.091003 0.026375003643358885
167.570938 0.002161240490833309
177.841095 0.002627590428167536
179.977463 0.002771138768253228
180.101425 0.01248141886968434
238.099106 0.0020752572211373108
269.116852 0.01426083534932525
301.142975 0.10994709842898365
304.013092 0.0023077035180273397
318.169556 1.0
352.384247 0.0023237342971232037
653.176086 0.0025999009006383166
END IONS

BEGIN IONS
CHARGE=1+
PRECURSORTYPE=2M+H
FORMULA=C22H23ClN2O6
ONTOLOGY=
INCHIKEY=ZXCTXNAJJZYGNM-UHFFFAOYSA-N
INCHI=InChI=1S/C22H23ClN2O6/c1-13-18(21(27)31-10-9-30-15-7-5-4-6-8-15)19(24-22(28)25(13)2)14-11-16(23)20(26)17(12-14)29-3/h4-8,11-12,19,26H,9-10H2,1-3H3,(H,24,28)
SMILES=COc1cc(C2N=C(O)N(C)C(C)=C2C(=O)OCCOc2ccccc2)cc(Cl)c1O
IONMODE=positive
INSTRUMENTTYPE=LC-ESI-Orbitrap
INSTRUMENT=Orbitrap
COMMENT=DB#=CCMSLIB00010110622; origin=GNPS
NUM_PEAKS=37
COMPOUND_NAME="2-phenoxyethyl 6-(3-chloro-4-hydroxy-5-methoxyphenyl)-3,4-dimethyl-2-oxo-1,3,6 -trihydropyrimidine-5-carboxylate "
PRECURSOR_MZ=893.256
COLLISION_ENERGY=102040
PARENT_MASS=892.2487235480093
75.055527 0.01137460526552451
78.835808 0.0018620075936335442
89.817017 0.0017194021362554462
90.280724 0.0017211151147224503
92.900284 0.0018958389183568768
93.069679 0.0031728643655084933
98.060066 0.20159144264477025
107.50396 0.002116384895983665
120.617668 0.0019780618847730774
121.064774 0.04391991140475369
137.380585 0.001841451852029494
142.049606 0.006628370178072676
151.049896 0.01835242305086604
155.738586 0.0018384541397122368
157.981522 0.0018718572198188183
169.060379 0.013443455009048809
176.271637 0.0015977806650981493
193.995804 0.002068421498907548
209.036423 0.0023112361966053908
211.015717 0.004077745240703452
212.010727 0.2147090035004715
224.046982 0.0025309256849986765
233.16655 0.0017039853300524087
235.015274 0.07920427011272255
236.127838 0.16206532100788226
238.064041 0.002340356830544462
252.04599 0.002067993254290797
262.107147 0.036298441960435336
266.057343 0.04130633450872206
289.117554 0.08515943975326258
309.06308 0.14285812170198114
310.083923 0.010391783870080861
334.614319 0.0021300887237196984
353.088196 0.014441264966078744
362.67215 0.002018316878747676
404.124481 0.04064341184199144
447.131165 1.0
END IONS

BEGIN IONS
CHARGE=1+
PRECURSORTYPE=2M+H
FORMULA=C21H27NO4
ONTOLOGY=
INCHIKEY=IWFAKKQEWNYNRB-UHFFFAOYSA-N
INCHI=InChI=1S/C21H27NO4/c1-5-25-19-11-14-9-10-22-21(17(14)13-20(19)26-6-2)16-8-7-15(23-3)12-18(16)24-4/h7-8,11-13,21-22H,5-6,9-10H2,1-4H3
SMILES=CCOc1cc2c(cc1OCC)C(c1ccc(OC)cc1OC)NCC2
IONMODE=positive
INSTRUMENTTYPE=LC-ESI-Orbitrap
INSTRUMENT=Orbitrap
COMMENT=DB#=CCMSLIB00010103666; origin=GNPS
NUM_PEAKS=22
COMPOUND_NAME="1-(6,7-diethoxy(1,2,3,4-tetrahydroisoquinolyl))-2,4-dimethoxybenzene "
PRECURSOR_MZ=715.395
COLLISION_ENERGY=102040
PARENT_MASS=714.3877235480093
92.822701 0.0024894882300437677
104.296501 0.0030840158110539114
121.064636 0.014257908215387971
123.080482 0.017895741062499138
139.075272 0.010400392050229131
141.886902 0.0026968815722566084
146.057831 0.002359675360288323
151.07518 0.3287514767174089
165.090927 0.010224491771093054
166.085876 0.009405672131097172
175.076431 0.003040232772142312
175.098953 0.02680904603671323
179.106445 0.004988193941963662
192.101715 0.0038905454752149594
193.122345 0.009089973376839847
193.719711 0.002530198774996659
203.106888 0.011031021435254102
207.125259 0.012361411319374993
220.132965 0.028443612822746288
341.174896 0.015497659527726953
358.20047 1.0
566.234802 0.003576382967936989
END IONS

BEGIN IONS
CHARGE=1+
PRECURSORTYPE=2M+H
FORMULA=C14H15NO4
ONTOLOGY=
INCHIKEY=SXNFVFUSWREOIQ-UHFFFAOYSA-N
INCHI=InChI=1S/C14H15NO4/c1-3-9-12(16)10-7-8(14(18)19-4-2)5-6-11(10)15-13(9)17/h5-7H,3-4H2,1-2H3,(H2,15,16,17)
SMILES=CCOC(=O)c1ccc2nc(O)c(CC)c(O)c2c1
IONMODE=positive
INSTRUMENTTYPE=LC-ESI-Orbitrap
INSTRUMENT=Orbitrap
COMMENT=DB#=CCMSLIB00010105581; origin=GNPS
NUM_PEAKS=16
COMPOUND_NAME=ethyl 3-ethyl-4-hydroxy-2-oxohydroquinoline-6-carboxylate
PRECURSOR_MZ=523.208
COLLISION_ENERGY=102040
PARENT_MASS=522.2007235480093
50.433659 0.006730866116796937
55.553051 0.007410286306516388
64.062538 0.007997581724748456
104.2696 0.006676167033726303
118.639503 0.008322897324063279
124.045998 0.006820111989175339
165.95752 0.007047545018784816
181.748703 0.00845244778396741
184.640564 0.007154064285817103
211.211487 0.010916785421254913
234.075714 0.17871917778641447
262.107269 1.0
346.455688 0.007732723006722229
393.028229 0.007188611075124873
442.625824 0.008040765211383166
523.250061 0.012837011126945056
END IONS

