BEGIN IONS
CHARGE=1+
PRECURSORTYPE=M+NH4
FORMULA=C19H19N5O3S
ONTOLOGY=
INCHIKEY=BSVSUGNFDMUUNM-UHFFFAOYSA-N
INCHI=InChI=1S/C19H19N5O3S/c1-10-13(22-18(27-10)12-7-5-6-8-14(12)26-4)9-28-19-23-15-16(24(19)3)20-11(2)21-17(15)25/h5-8H,9H2,1-4H3,(H,20,21,25)
SMILES=COc1ccccc1-c1nc(CSc2nc3c(O)nc(C)nc3n2C)c(C)o1
IONMODE=positive
INSTRUMENTTYPE=LC-ESI-Orbitrap
INSTRUMENT=Orbitrap
COMMENT=DB#=CCMSLIB00010105894; origin=GNPS
NUM_PEAKS=60
COMPOUND_NAME="8-{[2-(2-methoxyphenyl)-5-methyl(1,3-oxazol-4-yl)]methylthio}-2,9-dimethylhydr opurin-6-one "
PRECURSOR_MZ=415.155
COLLISION_ENERGY=102040
PARENT_MASS=414.1477235480092
51.457512 0.0005147208345368095
56.049961 0.0026704867052038095
58.065231 0.0005561679072725365
60.030739 0.0004434836782722788
68.267761 0.0004541044906608088
83.06057 0.07244883553153927
84.068314 0.005424126600083672
85.076202 0.008018583831237882
95.427757 0.0004015185171273552
97.069443 0.0008513487784122921
97.076073 0.018824094737646506
99.09137 0.0005538365094311519
103.523407 0.0004471102971366549
107.029404 0.0004863554941332964
118.639862 0.0005701562943208443
135.043961 0.0020132915581379386
136.047134 0.0008298481094306338
139.006073 0.0004430951119653813
142.56575 0.000488686891974681
143.005737 0.5610157900394913
143.448837 0.0005367395919276645
159.080215 0.00298768633373442
160.241272 0.0005017686243068949
168.056915 0.0007678070224293425
177.115433 0.004561638920873652
184.031296 0.0006402277516646828
186.047974 0.012943273204856044
187.074707 0.0009054890171733356
188.083115 0.0018555336375375776
193.11351 0.005921750517116993
198.04892 0.0007667708456109493
201.089157 0.0006341402128566229
202.084869 0.0007482491849821713
202.121902 0.0008684456959157796
203.089249 0.0005458061390886048
207.068222 0.002213014639883223
208.076752 0.0009387761974642163
210.091278 0.0006717016225233755
216.101822 0.00207533264513923
217.109009 0.0030172173730586256
218.080704 0.0010227065197540635
219.083893 0.0010926484549956027
225.05777 0.0005279320889713226
227.074097 0.0025556006004644662
228.100876 0.0038408484215789003
229.109421 0.0008128807140294456
230.11705 0.02478042765607737
242.114883 0.0005730057805714257
243.149063 0.0010934255876093976
254.116379 0.00094732465621596
271.143463 0.02099138807541813
272.151428 0.01963425548752767
272.183594 0.000923492589392917
281.070892 0.0005691201175024512
282.070404 0.0007235104634430342
301.077148 0.001003019160204593
395.152832 0.0040101338092838855
412.982452 0.0006845243106509911
415.157471 1.0
417.352173 0.0007071906785533418
END IONS

BEGIN IONS
CHARGE=1+
PRECURSORTYPE=M+NH4
FORMULA=C30H36O7
ONTOLOGY=
INCHIKEY=MEDVHSNRBPAIPU-UHFFFAOYSA-N
INCHI=InChI=1S/C30H36O7/c1-17-11-23-28(34,26(17)33)15-21(16-36-19(3)31)12-22-25-27(4,5)29(25,14-18(2)30(22,23)35)37-24(32)13-20-9-7-6-8-10-20/h6-12,18,22-23,25,34-35H,13-16H2,1-5H3/t18-,22+,23-,25-,28-,29+,30-/m1/s1
SMILES=CC(=O)OCC1=CC2C3C(C)(C)C3(OC(=O)Cc3ccccc3)CC(C)C2(O)C2C=C(C)C(=O)C2(O)C1
IONMODE=positive
INSTRUMENTTYPE=LC-ESI-Orbitrap
INSTRUMENT=Orbitrap
COMMENT=DB#=CCMSLIB00010111860; origin=GNPS
NUM_PEAKS=12
COMPOUND_NAME=DOPPA
PRECURSOR_MZ=526.28
COLLISION_ENERGY=102040
PARENT_MASS=525.2727235480093
74.657822 0.026157954195337372
88.657837 0.026086063469241038
118.942322 0.02354934784841327
155.997314 0.02586012118722399
205.645294 0.02669199958919585
209.699005 0.058652562390880146
225.126572 0.03271028037383177
249.514099 0.02662010886309952
267.173309 0.046379788435863205
295.169128 1.0
355.190979 0.23267947006264764
370.561432 0.02786279141419328
END IONS

BEGIN IONS
CHARGE=1+
PRECURSORTYPE=M+NH4
FORMULA=C22H18N2O6
ONTOLOGY=
INCHIKEY=UKTFMPQSNSFGKD-UHFFFAOYSA-N
INCHI=InChI=1S/C22H18N2O6/c1-26-15-8-11(9-16(27-2)20(15)28-3)17-13(10-23)21(24)30-19-12-6-4-5-7-14(12)29-22(25)18(17)19/h4-9,17H,24H2,1-3H3
SMILES=COc1cc(C2C(C#N)=C(N)Oc3c2c(=O)oc2ccccc32)cc(OC)c1OC
IONMODE=positive
INSTRUMENTTYPE=LC-ESI-Orbitrap
INSTRUMENT=Orbitrap
COMMENT=DB#=CCMSLIB00010108670; origin=GNPS
NUM_PEAKS=11
COMPOUND_NAME="2-amino-5-oxo-4-(3,4,5-trimethoxyphenyl)-4H-pyrano[3,2-c]chromene-3-carbonitri le "
PRECURSOR_MZ=424.15
COLLISION_ENERGY=102040
PARENT_MASS=423.1427235480092
73.950783 0.002712948272312183
83.231163 0.0015375073385378254
121.027893 0.0023725548565662466
215.416321 0.0016853936165398054
239.044724 1.0
323.846954 0.0020793320639761136
397.109161 0.0021908842133310557
406.113647 0.0020327988816737667
424.1185 0.00808275002183235
424.187683 0.0020672206877604344
449.758698 0.0017147158957988185
END IONS

BEGIN IONS
CHARGE=1+
PRECURSORTYPE=M+NH4
FORMULA=C20H27NO11
ONTOLOGY=
INCHIKEY=XUCIJNAGGSZNQT-UHFFFAOYSA-N
INCHI=InChI=1S/C20H27NO11/c21-6-10(9-4-2-1-3-5-9)30-20-18(28)16(26)14(24)12(32-20)8-29-19-17(27)15(25)13(23)11(7-22)31-19/h1-5,10-20,22-28H,7-8H2
SMILES=N#CC(OC1OC(COC2OC(CO)C(O)C(O)C2O)C(O)C(O)C1O)c1ccccc1
IONMODE=positive
INSTRUMENTTYPE=LC-ESI-Orbitrap
INSTRUMENT=Orbitrap
COMMENT=DB#=CCMSLIB00010111621; origin=GNPS
NUM_PEAKS=42
COMPOUND_NAME=amygdalin
PRECURSOR_MZ=475.192
COLLISION_ENERGY=102040
PARENT_MASS=474.18472354800923
69.033813 0.05682817927969594
71.049347 0.011500558119155832
73.028664 0.014447635904622478
74.145287 0.002732349699032941
74.949242 0.002383742562757978
81.033684 0.02169275279668119
82.399757 0.0036573322252089033
83.876106 0.0027732088895689095
85.028557 0.8177567087313482
87.04406 0.006447058659888098
91.038963 0.07132015175277234
92.380997 0.003301770333098031
97.028374 0.17475475792233625
99.0439 0.03790168061674775
103.038406 0.00457275196211049
107.048958 0.021938777284376487
108.00222 0.0029748968088102847
109.028282 0.05673950614278809
115.038559 0.005698553063048339
127.038834 0.32641103302465807
134.06102 0.002919258762123009
145.049408 1.0
146.05957 0.004756183647282603
158.059601 0.013019302924822567
163.059875 0.5492805305087751
180.086166 0.031029512506389682
181.069382 0.00459274688513873
189.073822 0.002901871872533235
204.08519 0.003134856193036203
251.090942 0.013729557364564824
253.071518 0.004340636986087011
260.090912 0.004745751513528739
269.101837 0.0036573322252089033
271.081146 0.018023249748759445
278.101196 0.07046558612943496
278.947235 0.002406345519224684
289.090912 0.05934058482541824
296.112152 0.15804334899312522
313.138733 0.03879275870822365
325.112091 0.5811341815817201
458.165741 0.052686622179411835
475.191254 0.2682345004572752
END IONS

BEGIN IONS
CHARGE=1+
PRECURSORTYPE=M+NH4
FORMULA=C20H27NO11
ONTOLOGY=
INCHIKEY=XUCIJNAGGSZNQT-UHFFFAOYSA-N
INCHI=InChI=1S/C20H27NO11/c21-6-10(9-4-2-1-3-5-9)30-20-18(28)16(26)14(24)12(32-20)8-29-19-17(27)15(25)13(23)11(7-22)31-19/h1-5,10-20,22-28H,7-8H2/t10?,11-,12-,13-,14-,15+,16+,17-,18-,19-,20-/m1/s1
SMILES=N#CC(OC1OC(COC2OC(CO)C(O)C(O)C2O)C(O)C(O)C1O)c1ccccc1
IONMODE=positive
INSTRUMENTTYPE=LC-ESI-Orbitrap
INSTRUMENT=Orbitrap
COMMENT=DB#=CCMSLIB00010113701; origin=GNPS
NUM_PEAKS=38
COMPOUND_NAME=amygdalin
PRECURSOR_MZ=475.192
COLLISION_ENERGY=102040
PARENT_MASS=474.18472354800923
50.230911 0.007377101990851105
57.034 0.01449648862831003
61.028709 0.060746730236453834
63.28746 0.00871400038657303
66.840508 0.008826750853682109
69.033897 0.06601378777140648
71.049393 0.015227755943560338
73.028763 0.014982926357837769
81.033752 0.013423748469815089
82.399643 0.009338960118549063
85.028542 0.9339797693447587
87.044212 0.012679595386895174
91.03878 0.0621383931447716
97.028419 0.24131821403260098
99.044243 0.03955286386186457
100.290733 0.00865601443205979
104.289909 0.00945171058565814
107.049042 0.015991237677984667
109.028313 0.0648830616583983
127.038803 0.33343856710263514
127.049156 0.015659429160492237
145.049347 1.0
163.05983 0.5472360028348688
178.609314 0.008520713871528897
180.086487 0.0166161974099607
192.680756 0.010353714322530764
235.691162 0.008427292055924232
271.078644 0.011671284066748276
273.829376 0.009773854777398363
278.1026 0.06610720958701115
289.090576 0.04125378519425295
296.111816 0.12098769409187553
313.138824 0.02083950776367502
325.112 0.5808291991495393
419.233765 0.009425939050318922
458.164734 0.05234843115778622
475.190521 0.28645705817924105
475.927185 0.008643128664390182
END IONS

