BEGIN IONS
CHARGE=1+
PRECURSORTYPE=M+H-H2O
FORMULA=C9H12O3
ONTOLOGY=
INCHIKEY=XHUBSJRBOQIZNI-UHFFFAOYSA-N
INCHI=InChI=1S/C9H12O3/c1-12-9-6-7(4-5-10)2-3-8(9)11/h2-3,6,10-11H,4-5H2,1H3
SMILES=COc1cc(CCO)ccc1O
IONMODE=positive
INSTRUMENTTYPE=LC-ESI-Orbitrap
INSTRUMENT=Orbitrap
COMMENT=DB#=CCMSLIB00010125546; origin=GNPS
NUM_PEAKS=39
COMPOUND_NAME=Homovanillyl alcohol
PRECURSOR_MZ=151.075
COLLISION_ENERGY=205060
PARENT_MASS=150.06772354800924
53.039108 0.010901630887186202
54.179729 0.0021877388456872796
65.039032 0.023759605165227373
67.054619 0.003219502129138698
68.952469 0.009011400483426175
68.982582 0.002952045044981874
79.054482 0.013854677644093757
80.062363 0.005636633005806924
81.069847 0.0027476958121429524
82.014076 0.004402523913367946
82.405602 0.0028118053753865358
86.99295 0.013482040807740429
91.054352 1.0
93.070053 0.0040358973485687035
95.049187 0.10562651571535754
95.085258 0.0030522162375499727
100.02446 0.03317970411433139
103.053978 0.004018868245832127
104.292847 0.002851873852413775
105.003433 0.01680672268907563
105.07003 0.009870869315660464
107.47554 0.007403652842708188
108.056908 0.013293718965712402
109.064743 0.0031644079732262437
115.20005 0.0022899134621067402
116.481392 0.0029009577367721437
118.035004 0.011677957629588967
119.049072 0.632667228293153
123.043602 0.002955050180758917
123.08062 0.013695405447910479
128.019257 0.04131260323893534
136.051788 0.10748068448979306
137.059647 0.06206006064363998
146.030106 0.004215203783265601
146.969116 0.0029059662964005485
151.075211 0.6400698794239355
151.130692 0.010765398065293587
160.075821 0.003751411161675303
239.087631 0.002158689199842531
END IONS

BEGIN IONS
CHARGE=1+
PRECURSORTYPE=M+H-H2O
FORMULA=C20H18O6
ONTOLOGY=
INCHIKEY=PEYUIKBAABKQKQ-UHFFFAOYSA-N
INCHI=InChI=1S/C20H18O6/c1-3-15-17(25-9-23-15)5-11(1)19-13-7-22-20(14(13)8-21-19)12-2-4-16-18(6-12)26-10-24-16/h1-6,13-14,19-20H,7-10H2/t13-,14-,19?,20?/m0/s1
SMILES=c1cc2c(cc1C1OCC3C(c4ccc5c(c4)OCO5)OCC13)OCO2
IONMODE=positive
INSTRUMENTTYPE=LC-ESI-Orbitrap
INSTRUMENT=Orbitrap
COMMENT=DB#=CCMSLIB00010124181; origin=GNPS
NUM_PEAKS=153
COMPOUND_NAME=CCG-208458
PRECURSOR_MZ=337.107
COLLISION_ENERGY=205060
PARENT_MASS=336.09972354800925
52.685692 0.0023569199798691496
52.994331 0.0024712632108706595
53.039051 0.01403200805234021
54.754261 0.0026403623553095117
55.018219 0.002306995470558631
56.482059 0.002331152491192753
57.109779 0.002311021640664318
60.374321 0.0025413185707096127
65.038963 0.0062349270256668345
71.04953 0.06938621036738803
77.038589 0.006988626069451435
77.488579 0.0026830397584297937
79.054443 0.04833175641670861
91.054283 0.018688676396577755
95.049118 0.005738902868646201
101.203613 0.002261902365374937
103.053963 0.020622848515349772
105.033539 0.019525314544539506
107.049004 0.014251031706089582
111.043877 0.014868646200301964
115.054077 0.03403160543532964
116.061501 0.0037588324106693507
117.069733 0.01786250629089079
118.664513 0.0036477101157523905
119.048927 0.02265364871665828
123.044693 0.002837644690488173
128.061951 0.017837544036235532
129.069748 0.17459647710115753
131.049057 0.03309350780070458
131.085083 0.004345042778057373
133.028366 0.026571112229491697
135.043976 1.0
139.054077 0.016169099144438853
141.069275 0.0025888273779567186
143.048874 0.01823613487669854
144.057098 0.002997081026673377
145.064346 0.020972320080523403
147.043915 0.03896366381479618
149.023392 0.02816064418721691
149.059647 0.06914302969300452
151.0392 0.014203522898842476
152.062485 0.004686462003019628
153.069839 0.028509310518369402
155.04895 0.012103472571716156
157.064743 0.07404690488173125
159.043839 0.015646502264720686
161.05928 0.024733568193256165
163.039001 0.034776446904881735
165.05513 0.004555208857574233
165.070221 0.01614494212380473
167.049072 0.016885757423251133
172.052063 0.019309511826874685
172.23555 0.002595269250125818
173.059555 0.1250778057372924
174.067154 0.012936889783593357
175.038727 0.035609864116758934
175.075378 0.018499446401610466
177.054489 0.03625163563160543
177.069183 0.006296930045294414
178.077682 0.012354705586311021
179.049026 0.003513236034222446
179.085312 0.005654353296426774
180.056137 0.005443381982888777
181.065277 0.018058178158027176
184.050522 0.0029036738802214394
185.059525 0.3894731756416709
187.075302 0.09534051333668847
187.093292 0.00449401107196779
189.053848 0.011040563663814796
189.070175 0.010008253648716658
190.077713 0.024171514846502266
191.085556 0.06582868646200302
193.064575 0.00327730246602919
193.100601 0.011799899345747359
196.052216 0.0034327126321087066
197.059418 0.052970709612481126
202.077637 0.0583472571716155
203.085327 0.4208
205.064789 0.025790840463009564
205.100937 0.014705183694011073
206.071747 0.004895017614494212
207.080688 0.005075390035228988
209.059464 0.33072732762959234
210.06749 0.011923905385002516
211.075424 0.011390840463009562
212.046707 0.012750880724710619
213.069672 0.01343613487669854
215.06926 0.15211514846502264
218.072311 0.028968293910417716
219.08017 0.1286635128334172
221.059067 0.0050496225465525915
221.095871 0.020456970306995472
222.067032 0.01428565676899849
223.075851 0.014277604428787116
225.053741 0.02055923502767992
231.080093 0.32226673376950177
233.059799 0.013009360845495721
233.095566 0.02018238550578762
234.067398 0.0056197282335178666
235.075195 0.04428626069451434
236.047119 0.003570407649723201
236.082611 0.005643885254151988
237.05426 0.12299386009058882
238.062271 0.014200301962757926
239.070251 0.014000603925515854
241.062744 0.00410508303975843
243.079025 0.0030284851534977354
246.0672 0.11814957221942628
247.074951 0.038766381479617515
248.083374 0.00542405636638148
249.05928 0.007640060392551586
249.090393 0.11533930548565677
251.069641 0.005957926522395571
251.107086 0.0034407649723200806
253.04808 0.009378560644187217
259.075378 0.06255379969803725
260.082764 0.010321489682939104
261.090576 0.28534111726220435
262.062592 0.04031243080020131
263.07016 0.027859486663311527
263.102631 0.007257574232511324
264.077667 0.003214494212380473
265.049561 0.0052831404126824355
266.023438 0.005588324106693508
266.056885 0.25222828384499246
267.064789 0.36307840966280824
271.073792 0.009114443885254153
272.083038 0.0027192752893809764
273.090363 0.00538057372924006
274.061951 0.07437866129843985
275.069366 0.010280422747861097
276.077515 0.004770206341217917
277.051575 0.004881328636134876
277.085449 0.0975331655762456
279.065063 0.14483261197785607
279.100342 0.013829089079013588
280.072632 0.00521389028686462
281.08078 0.004691293407146452
288.077362 0.00455601409159537
289.085419 0.4450302969300453
290.055725 0.012946552591847005
291.065002 0.014792954202315047
292.072571 0.020684046300956216
293.080597 0.04044851534977353
294.97287 0.002544539506794162
303.065063 0.03157644690488173
304.071686 0.04827458480120785
307.095825 0.11125837946653246
309.110748 0.029903170608958227
319.095734 0.39469431303472574
337.106384 0.38906975339708105
337.179352 0.005951484650226472
337.231934 0.03388988424760946
END IONS

BEGIN IONS
CHARGE=1+
PRECURSORTYPE=M+H-H2O
FORMULA=C27H44O6
ONTOLOGY=
INCHIKEY=UPEZCKBFRMILAV-UHFFFAOYSA-N
INCHI=InChI=1S/C27H44O6/c1-15(20(28)8-9-24(2,3)32)16-7-11-27(33)18-12-21(29)19-13-22(30)23(31)14-25(19,4)17(18)6-10-26(16,27)5/h12,15-17,19-20,22-23,28,30-33H,6-11,13-14H2,1-5H3/t15-,16+,17-,19-,20+,22+,23-,25+,26+,27+/m0/s1
SMILES=CC(C(O)CCC(C)(C)O)C1CCC2(O)C3=CC(=O)C4CC(O)C(O)CC4(C)C3CCC12C
IONMODE=positive
INSTRUMENTTYPE=LC-ESI-Orbitrap
INSTRUMENT=Orbitrap
COMMENT=DB#=CCMSLIB00010124104; origin=GNPS
NUM_PEAKS=153
COMPOUND_NAME=ECDYSONE
PRECURSOR_MZ=447.31
COLLISION_ENERGY=205060
PARENT_MASS=446.3027235480092
53.039009 0.007612971173102342
54.514702 0.0038443842203386676
55.054691 0.028068924981981526
55.66647 0.004598367566216227
57.070332 0.008686100908769345
59.049641 0.00837094384885227
60.537849 0.00369677901506105
65.038986 0.009023864171296506
67.054588 0.4120153296649229
69.033653 0.005023896085935484
69.070213 0.17134570734807966
71.049568 0.0071089858325598465
71.085899 0.02003574439565642
79.054466 0.1169831091773204
81.034126 0.004453421914186855
81.070107 0.8923053805421766
83.049469 0.00948263710661883
83.085861 0.009614284992406975
85.064743 0.0048802802105302355
91.054298 0.048510251247995365
92.375778 0.003991989425616285
93.069939 0.11438871498365705
95.049133 0.009241947537652626
95.085548 0.11027172655537323
97.064751 0.024365497083799863
99.080406 0.498937508477326
105.033363 0.0053257553796113325
105.069893 0.09645135810086622
107.085426 0.10508027861479828
108.428139 0.005720699036975769
109.064957 0.05498493363084869
109.101128 0.8596686728563336
111.080223 0.017392148466900532
117.069748 0.027765735911681556
119.048973 0.00772068307965628
119.085487 0.07318691606183993
121.064751 0.02349050406512714
121.10112 0.047145900431645495
123.080513 0.02656760717334702
123.11631 0.016235242803913797
127.111221 0.02242269343595663
128.062149 0.005139586652234158
129.069534 0.01776980502815137
131.085297 0.06223088645569317
133.06485 0.005090384917141619
133.101028 0.0623558854583607
135.080154 0.03109815613173299
135.116684 0.01803841990622415
137.059662 0.024414698818892404
137.131958 0.00512096977949644
141.069168 0.006702074185578307
142.077499 0.0068177647518769795
143.085449 0.07689566306651809
145.064804 0.006740637707677864
145.101013 0.08920008616952524
147.080139 0.027438610862147376
147.116348 0.03557950335502642
149.096207 0.01730305343308431
149.132324 0.007292495006688777
155.085403 0.02701840144892461
156.093704 0.005779209208437166
157.101685 0.04710334757967357
159.080566 0.022014452012350964
159.116898 0.057874538235067274
161.09581 0.03568189615508387
161.131409 0.010062419714736318
163.112137 0.006132929790453799
165.127075 0.020345582349077
167.085251 0.008062435672055808
169.100693 0.028054297439116176
171.08017 0.020470581351744534
171.116135 0.03184150126461757
173.096054 0.08422273226543406
173.132355 0.04251029911995383
175.111374 0.02511150176993269
175.147919 0.0072180275157379065
179.142899 0.026783030986454896
181.100891 0.0237870442523065
182.10878 0.006180801748922216
183.116501 0.03939330271301027
184.125046 0.005573093831698152
185.095917 0.02625776921992644
185.132416 0.03515663438855541
187.111496 0.025680646165057195
187.147644 0.008805780804940386
189.09108 0.009788485730167046
189.127548 0.004981343233963559
191.105804 0.030822892370539597
194.10791 0.006010590341034513
195.116577 0.03509679444046989
197.096222 0.01680172764579006
197.132263 0.034458501660891004
199.111694 0.035548918492671604
199.146957 0.029346840317763422
201.127457 0.009647529408010043
203.14183 0.006236652367135369
207.117279 0.015985244798578734
209.096497 0.007382919817129119
209.132492 0.02752105701284298
211.111618 0.03212873301542807
211.147842 0.02365938569639072
212.11998 0.006994625042885296
213.127686 0.04213397233532711
213.163406 0.008438762456682526
215.142929 0.009420137605285064
217.099304 0.004551825384371933
221.132721 0.008014563713587391
223.054871 0.004132945747773289
223.111542 0.009452052244264009
223.148117 0.014882859977181032
225.127655 0.04143583960766271
227.142532 0.028622112057616562
229.122635 0.005112991119751704
231.115372 0.005364318901710891
231.137131 0.03854490522682
235.147827 0.00508639558726925
237.125671 0.004519910745392989
237.163849 0.018303045454424564
238.138245 0.005954739722821361
239.143539 0.028938598894157758
239.179092 0.020901428977960282
241.157837 0.0063084603048379935
249.147659 0.005732667026592873
250.134811 0.017632838035866735
251.142776 0.00820206221758869
251.176102 0.004628952428571049
255.136414 0.005670167525259107
255.173279 0.004732675005252617
257.154419 0.007533184575654981
265.158691 0.018644798046824094
267.174652 0.019338941444616134
269.152954 0.0056262848966630585
283.169342 0.06660452177243267
283.20282 0.006777871453153299
284.176819 0.025354850892147136
285.185089 0.043328111743789276
301.179016 0.1367954511001242
302.187225 0.08012835003976032
303.194885 0.1198740435581631
313.216003 0.021678018526447927
327.193573 0.007078400970205025
329.211975 0.0051621928548442435
331.226135 0.28121052225647136
337.216034 0.00943742470139866
343.224854 0.006458725063363856
347.220428 0.008269880825418945
355.225189 0.02611681289776943
358.810059 0.004847035794927168
373.235352 0.008565091235974182
393.278656 0.02019132826067877
411.288391 0.17079385004906875
429.299042 1.0
447.309692 0.32163307207655256
END IONS

BEGIN IONS
CHARGE=1+
PRECURSORTYPE=M+H-H2O
FORMULA=C20H32O4
ONTOLOGY=
INCHIKEY=BGKHCLZFGPIKKU-UHFFFAOYSA-N
INCHI=InChI=1S/C20H32O4/c1-2-3-6-9-17(21)14-12-16-13-15-19(22)18(16)10-7-4-5-8-11-20(23)24/h12-18,21H,2-11H2,1H3,(H,23,24)/b14-12+/t16-,17-,18+/m0/s1
SMILES=CCCCCC(O)C=CC1C=CC(=O)C1CCCCCCC(=O)O
IONMODE=positive
INSTRUMENTTYPE=LC-ESI-Orbitrap
INSTRUMENT=Orbitrap
COMMENT=DB#=CCMSLIB00010123112; origin=GNPS
NUM_PEAKS=118
COMPOUND_NAME=prostaglandin A1
PRECURSOR_MZ=319.227
COLLISION_ENERGY=205060
PARENT_MASS=318.2197235480092
53.00285 0.0029073266925647725
53.039051 0.01835733653333537
55.018291 0.0312754976277055
55.054729 0.10441821937466202
57.03389 0.0033468174183550435
57.070351 0.02588791457828954
60.607571 0.0022423581161516663
60.711182 0.002356052456084367
63.344509 0.0025614665996602547
63.348148 0.0027200654267932655
65.038918 0.004250639650088949
66.750061 0.0035015945870029218
67.054626 0.16363863926027977
69.070236 0.056607360896408214
71.049461 0.005803188409674146
71.085983 0.005694271142847862
73.960983 0.0027554157677807437
79.054482 0.14740041235695053
81.033699 0.0053818505616882555
81.070091 0.11221153644046906
82.405708 0.0033038237603973
83.049553 0.0049786655915067465
83.0858 0.038644610601662806
90.0802 0.0028500018152877804
91.054352 0.2326310398923821
93.069977 0.1468118769502401
95.04908 0.020160203923696766
95.085587 0.09257967680234191
97.064621 0.015013385358844177
97.101219 0.005412423829569318
103.053902 0.012102237007794272
104.926407 0.002646498500954459
105.069847 0.2997546495252545
107.049133 0.07982871326669636
107.08535 0.05169652974301257
109.064987 0.0202719874343869
109.101097 0.029850974427372248
111.080353 0.01150414745487099
115.054283 0.01685064767557177
117.069763 0.11947459839146395
119.048889 0.013114976506354462
119.085487 0.1450090095598787
119.094963 0.005812742555886978
121.064827 0.06711023382817441
121.101082 0.017276762596664073
123.080177 0.0332598937961107
128.061661 0.015651602325861352
129.069778 0.10300133949129904
130.077789 0.004166563163416028
131.085495 0.1503144269518643
131.408936 0.002838536839832382
133.064682 0.18608610578732854
133.101013 0.05994557958317171
135.080719 0.026761163542142384
135.116577 0.018713706187074006
141.06955 0.01105892424135302
142.077866 0.00547548119457401
143.085358 0.06958093603881277
145.064941 0.02091975854761691
145.101166 0.06273443486269736
147.080368 0.12049402579237312
147.116394 0.03437295182990562
149.096375 0.004636627157087361
149.132523 0.004464652525256386
153.090515 0.0026130589892095473
155.085037 0.013979626738615757
156.093353 0.0035254799525350016
157.064789 0.0053770734885818395
157.101242 0.035558621374918074
159.080383 0.013521983135021105
159.116745 0.033493970378325084
161.095825 0.032587281902727326
161.132278 0.04988888527954476
163.111542 0.016400647388947382
167.085464 0.014804149556783157
169.101028 0.014923576384443558
171.11647 0.039742382001517196
173.096191 0.010135038302572168
173.132355 0.07239272126924921
175.111404 0.01388217444724487
175.147644 0.019069120426191355
177.126785 0.005470704121467594
181.100922 0.01183281008459241
183.116653 0.011080898777642534
185.094467 0.0061232523078040176
185.13237 0.051045892385918716
187.112152 0.019884089098145923
187.148102 0.019243005887264897
189.127411 0.025058614687015725
191.142838 0.029368490043624233
195.116684 0.006307647329711675
197.131714 0.005132487345533341
199.111389 0.005092359931439447
199.147141 0.024468168451062706
201.127121 0.01057835068684757
203.143005 0.06754781372472211
205.157806 0.00278121196255539
209.131607 0.012158606470449982
209.285828 0.004133123651671115
209.30452 0.0035875819029184096
213.126953 0.010928987852858505
213.16391 0.0031347153724301737
217.158249 0.012589498464648704
219.138092 0.004400639745630411
227.140991 0.0032111485421328296
231.138306 0.006422297084265659
241.193756 0.01699491528338553
245.227188 0.004287900820318994
255.210495 0.031883141326841606
259.204559 0.018050648439903463
265.194427 0.01915415232748556
273.186707 0.003541722001096816
273.22049 0.10584465340423783
283.131165 0.004047136335755628
283.205139 0.1536698431018109
301.215637 1.0
319.1875 0.011610198477833426
319.225586 0.13424817468036604
END IONS

BEGIN IONS
CHARGE=1+
PRECURSORTYPE=M+H-H2O
FORMULA=C10H12O4
ONTOLOGY=
INCHIKEY=FBUBVLUPUDBFME-UHFFFAOYSA-N
INCHI=InChI=1S/C10H12O4/c1-6(11)10-8(12)4-7(13-2)5-9(10)14-3/h4-5,12H,1-3H3
SMILES=COc1cc(O)c(C(C)=O)c(OC)c1
IONMODE=positive
INSTRUMENTTYPE=LC-ESI-Orbitrap
INSTRUMENT=Orbitrap
COMMENT=DB#=CCMSLIB00010115931; origin=GNPS
NUM_PEAKS=206
COMPOUND_NAME=Xanthoxylin
PRECURSOR_MZ=179.07
COLLISION_ENERGY=205060
PARENT_MASS=178.06272354800925
55.018242 0.0029914099103817457
56.965248 0.11845455569303129
62.37413 0.000643449456139508
65.038963 0.010809872105560364
66.046661 0.0061718380208534325
67.018242 0.001116388744281215
67.051018 0.0009616300929575757
67.054588 0.009933300202643262
67.93515 0.0010742534371778322
68.997414 0.015556394761360585
69.033943 0.0013642782379408357
70.980751 0.01037453956347822
71.773277 0.0008675147808294591
71.952217 0.003474784578320085
73.943001 0.0010167604013171419
74.975723 0.0016216186416049534
77.038887 0.0018699019231814284
78.046654 0.00403514478400339
79.021591 0.001590903184090338
79.054451 0.03060047144289406
80.062149 0.0013079665658307074
81.033752 0.06467533367619134
81.070053 0.005768402300036465
88.006989 0.0014357507448498447
88.99102 0.003878220299137053
89.038651 0.001160099203052014
89.979958 0.0007263418126372843
90.046387 0.00302881976248288
90.948097 0.0008824787216699128
91.054329 0.16926363234699962
92.025871 0.001152814126590214
92.061783 0.0012723287593554165
92.985893 0.0012666188345610329
93.063431 0.0016466241743251853
93.069977 0.037252927616267854
93.513092 0.0008519601581137244
94.04126 0.004377937165624835
95.049248 0.01468395763157045
95.085732 0.001589524926381349
95.500427 0.0016198465959791103
96.057259 0.001358174525229598
96.937424 0.0018710832869319905
97.011749 0.0028691387621985654
97.991074 0.0017350295616589183
101.510773 0.0007702491653665102
102.046638 0.0014119265758801751
102.948097 0.001240628832048666
102.993973 0.0011736848861834783
103.054161 0.04584163897681298
103.061897 0.0015487678769869554
104.505653 0.012099724427215786
105.009499 0.004360807391241684
105.033577 0.005998965125354507
105.044289 0.002697841018367056
105.07003 0.010641133983188406
105.513489 0.0008570794010328269
106.017441 0.044856184714885734
106.040993 0.003923899697492122
106.503166 0.0009368214541957708
107.007133 0.005243679900828451
107.049118 0.004367501785828203
108.021133 0.006301197351539986
108.056969 0.04159542386937582
108.518883 0.001348920509183528
109.028816 0.0010264082052800659
109.06469 0.021922370225223062
110.002037 0.0013961750592060133
110.505302 0.010795892634512045
111.00898 0.001616302504727424
111.043243 0.0008253794737260764
111.08036 0.003430089649757151
112.503159 0.005140507466612691
113.007339 0.0012719349714385624
113.51107 0.08998605203198504
114.014977 0.04345508730671904
114.518997 0.004871156531484525
114.947739 0.001448155064230747
115.022789 0.1529354132686051
115.508324 0.0014261029408869207
116.012733 0.010356819107219787
117.516693 0.0009346556206530736
117.525551 0.007798969693294343
118.017082 0.01898884713861886
118.026512 0.0011988873128621373
118.041328 0.03832206181052658
119.006989 0.007744823854726912
119.049088 0.05898588585348412
119.510941 0.04914158172004987
120.015244 0.013013509288275596
120.057037 0.00425665048723379
120.500458 0.0017121898624813836
120.51873 0.0038471110537055837
121.004799 0.001000221308809272
121.029083 0.0010876422263508697
121.064774 0.03447258802931987
121.508263 0.00429563549100234
122.516281 0.09568652591636417
123.004379 0.001037631160910406
123.020248 0.04771547877916295
123.044189 0.006682777842971555
123.080368 0.08557483978738603
123.524483 0.006945434383513202
124.011063 0.0025397351697501575
124.028107 0.04124849671462741
125.019112 0.010505670939790615
125.059677 0.001481823931121768
125.522331 0.004993230785709279
126.530663 0.024190391732343927
127.022537 0.05739143857814209
128.012177 0.010044939077071383
128.516281 0.445342827822534
129.020111 0.018731309840996316
129.031647 0.0012993032316599184
129.50589 0.026966793440123364
129.523926 0.0010236516898620876
130.009613 0.004057984483180925
131.018585 0.007413254428735807
131.522064 0.0036854611138369985
132.025757 0.0011931773880677536
132.958786 0.0017830716875151117
133.064758 0.10501614924247019
134.024445 0.006462847291408572
134.036041 0.0184062379156333
134.527985 0.003266273876345869
135.020294 0.0011853016297306727
135.044067 0.003927443788743809
135.536026 0.0054535688605116565
136.028107 0.5148424572681042
136.051926 0.043296390776226865
137.017624 0.007746399006394328
137.029236 0.0017639729735476905
137.059677 0.043068978254243655
137.521637 0.5842239503386182
138.025284 0.004567939835506911
138.511383 0.049579080095674716
138.530472 0.022152933050541106
140.024292 0.07813480778030414
140.527145 0.004424010351896758
140.950912 0.002950455967028925
141.013702 0.002985109303712081
141.054428 0.004743766140382242
142.966888 0.0012987125497846373
145.03334 1.0
145.535934 0.0016007478820116892
146.035828 0.006601460638141195
146.526642 0.02326400565794479
147.043716 0.012015650706967447
147.53595 0.16834295619739487
148.037521 0.001572592045956625
148.051407 0.004603774535940629
149.030182 0.06399979050482824
149.059021 0.005207845200394733
150.019028 0.004285003217247281
151.075317 0.33897027610046004
151.532257 0.00870428811414179
153.053864 0.0010311336602823143
154.038574 0.09821188782714915
155.974472 0.006033421568079236
156.541336 0.2966026341261334
157.042343 0.0038540023422505296
158.545837 0.001267209516436314
159.043854 0.027117023530403184
160.537598 0.005434667040502663
161.059631 0.027042794508076198
163.039108 0.00301031173039074
164.046631 0.04103821396702735
164.985977 0.0029551814220311738
165.054153 0.005319484074822855
165.546494 0.014483125793974887
166.057343 0.0014593780198610873
167.001129 0.004502964829225994
168.049271 0.043319821157279684
168.065292 0.0015245499201004317
174.969925 0.0011191452596991933
177.054871 0.009081340044529538
179.070175 0.3992345944260108
179.556915 0.004960152600693539
181.016525 0.0009187072100204849
182.996155 0.017740736336149966
185.011566 0.005933202543239882
192.979813 0.006192314992529843
194.994644 0.0011750631438924674
197.012634 0.0055486686424319085
199.026489 0.000848612960820465
200.00032 0.0014420513515195094
201.006485 0.024000782850378707
209.010193 0.0012487014843441738
210.990707 0.0037557522569954455
211.02742 0.041480044009737586
213.008713 0.0010293616146564712
215.022568 0.00609859346831858
219.016403 0.002848661790522155
224.021866 0.0007968298497541582
225.007523 0.00697004612831658
227.022339 0.0031833815198480924
229.038055 0.09331198477773428
238.013596 0.0012687846681037301
243.017532 0.009080946256612684
247.049728 0.009916958004093819
252.054001 0.004061331680474184
253.037659 0.01162934476053363
256.023895 0.0018151654027387162
261.028961 0.00135738694939589
271.048065 0.025461342233990356
289.058228 0.0012607120158082221
294.064087 0.0008982302383440746
END IONS

BEGIN IONS
CHARGE=1+
PRECURSORTYPE=M+H-H2O
FORMULA=C7H10O4
ONTOLOGY=
INCHIKEY=GYXGAEAOIFNGAE-UHFFFAOYSA-N
INCHI=InChI=1S/C7H10O4/c1-4(2)5(7(10)11)3-6(8)9/h3H2,1-2H3,(H,8,9)(H,10,11)
SMILES=CC(C)=C(CC(=O)O)C(=O)O
IONMODE=positive
INSTRUMENTTYPE=LC-ESI-Orbitrap
INSTRUMENT=Orbitrap
COMMENT=DB#=CCMSLIB00010123092; origin=GNPS
NUM_PEAKS=34
COMPOUND_NAME=2-(methylethylidene)butanedioic acid
PRECURSOR_MZ=141.055
COLLISION_ENERGY=205060
PARENT_MASS=140.04772354800926
55.01825 0.013664704366480478
55.945759 0.011788861408505383
56.965309 0.007388746280944715
57.935188 0.0023176115047239113
58.961311 0.002321794918992366
59.049549 0.08722669754584185
60.650681 0.0019252072463428593
65.038963 0.16234826756448315
67.054604 1.0
67.93528 0.02503689771384777
71.049431 0.024098976234860223
82.060448 0.0017177098986275055
82.396248 0.001962021291905261
82.492607 0.0018942499807562943
85.040169 0.0018934132979026035
85.064987 0.00916753402789166
95.049156 0.4258498187744939
99.93557 0.002012222263126717
104.282448 0.0023937496444097874
108.080429 0.004286326259458699
111.114792 0.0018490691066569834
112.966728 0.007241490098695109
113.050499 0.002785317219937148
113.059563 0.07905230606528134
116.971931 0.01281463458713048
117.945351 0.004280469479482863
124.63028 0.0019193504663670227
130.977127 0.002589533432173468
135.955505 0.001974571534710625
136.202896 0.0018607826666086566
139.98819 0.0023343451617977304
140.951187 0.014195997978574225
141.05455 0.0169880086613409
146.974258 0.0029375934993089
END IONS

BEGIN IONS
CHARGE=1+
PRECURSORTYPE=M+H-H2O
FORMULA=C24H40O3
ONTOLOGY=
INCHIKEY=SMEROWZSTRWXGI-UHFFFAOYSA-N
INCHI=InChI=1S/C24H40O3/c1-15(4-9-22(26)27)19-7-8-20-18-6-5-16-14-17(25)10-12-23(16,2)21(18)11-13-24(19,20)3/h15-21,25H,4-14H2,1-3H3,(H,26,27)/t15-,16?,17-,18+,19-,20+,21+,23+,24-/m1/s1
SMILES=CC(CCC(=O)O)C1CCC2C3CCC4CC(O)CCC4(C)C3CCC12C
IONMODE=positive
INSTRUMENTTYPE=LC-ESI-Orbitrap
INSTRUMENT=Orbitrap
COMMENT=DB#=CCMSLIB00010121505; origin=GNPS
NUM_PEAKS=81
COMPOUND_NAME=3a-hydroxy-5b-cholan-24-oate
PRECURSOR_MZ=359.294
COLLISION_ENERGY=205060
PARENT_MASS=358.2867235480092
53.039219 0.0184524550580539
55.054951 0.12957762088543973
63.48188 0.00870566530261212
65.039352 0.008014907193925407
67.054878 0.33878489671322826
69.070427 0.17347301192775005
79.054832 0.216077249055278
81.07045 0.6570500143892546
82.383293 0.012430912182692922
83.086037 0.10805454691211029
85.065437 0.01997930459447608
91.054626 0.09911569810420184
93.070297 0.4924892523904819
95.08596 0.6566647000736272
97.065063 0.034863889472791745
97.101463 0.03139968103511015
99.044533 0.01208608727166063
101.060028 0.014946501157605378
105.070282 0.11567904167194643
107.085838 0.4560722100454361
109.065224 0.008585970347421996
109.101448 0.3217288089132843
115.075287 0.008581758858257899
119.085732 0.1292588037671401
121.064507 0.008659043378707819
121.101303 0.45639257876500666
123.117012 0.11004783734489991
131.085464 0.012576541044840907
133.101257 0.13261321794345596
135.080475 0.04624407205192988
135.116806 0.4943240578363068
137.096054 0.011893023742085448
137.132187 0.01714681953140903
145.100723 0.05089030511500136
147.116776 0.11771023550721292
149.095993 0.036946951121973964
149.132507 0.3227640963899041
151.111404 0.012378748825677967
153.090775 0.034517882389362514
157.099747 0.010639551572455531
159.116394 0.03879645983698581
161.133316 0.06582269408961827
162.985535 0.00820619746490518
163.111649 0.036053154904112886
163.147888 0.16017771006556994
165.12677 0.008664954240692517
167.106873 0.04360509383308686
169.12085 0.012071605659798122
173.132263 0.015067304399417633
175.147659 0.05059106772702605
177.127121 0.04947140269557472
177.163437 0.08203589297054432
181.121887 0.07224691443768677
187.148712 0.01216218961971361
189.162582 0.06671227881831525
191.143784 0.009418293600642216
191.178574 0.016223173460525233
195.137589 0.14374381437529024
199.148361 0.012815118211698262
203.179077 0.03335322092105268
205.194809 0.010334920522919183
209.152954 0.06332454215756067
209.44957 0.010490006764242684
209.46962 0.02416013116202744
217.19458 0.03989942668333037
221.153625 0.018010322581598525
223.169235 0.015269751422393523
231.210968 0.015156410643836948
235.170013 0.05783867114956291
245.225403 0.012448866425971442
249.184113 0.07764367920126522
263.199951 0.07631026262329227
275.199463 0.012580309219356153
277.216736 0.014714721482030426
299.272705 0.012953210724815756
303.229828 0.01135070215498945
303.414856 0.008920968450404727
323.273346 0.052403485783083924
341.282562 0.08541697991156612
359.293945 1.0
368.98587 0.009754547761796696
END IONS

BEGIN IONS
CHARGE=1+
PRECURSORTYPE=M+H-H2O
FORMULA=C24H40O3
ONTOLOGY=
INCHIKEY=SMEROWZSTRWXGI-UHFFFAOYSA-N
INCHI=InChI=1S/C24H40O3/c1-15(4-9-22(26)27)19-7-8-20-18-6-5-16-14-17(25)10-12-23(16,2)21(18)11-13-24(19,20)3/h15-21,25H,4-14H2,1-3H3,(H,26,27)/t15-,16-,17-,18+,19-,20+,21+,23+,24-/m1/s1
SMILES=CC(CCC(=O)O)C1CCC2C3CCC4CC(O)CCC4(C)C3CCC12C
IONMODE=positive
INSTRUMENTTYPE=LC-ESI-Orbitrap
INSTRUMENT=Orbitrap
COMMENT=DB#=CCMSLIB00010123620; origin=GNPS
NUM_PEAKS=118
COMPOUND_NAME=LITHOCHOLIC ACID
PRECURSOR_MZ=359.294
COLLISION_ENERGY=205060
PARENT_MASS=358.2867235480092
51.923691 0.0033030686905870634
53.039021 0.01672573936507516
55.01836 0.006100010151970586
55.023312 0.00434622045077692
55.054729 0.11922974497955628
57.070271 0.016724268064990267
59.049561 0.005170148498317568
65.039017 0.01022406428992851
67.054642 0.37022765426213566
69.070297 0.18343286678407641
71.049294 0.0058660734384724375
73.065071 0.005451166814532326
79.05455 0.2238744922175582
81.070137 0.6786224511565154
83.049156 0.024723726626559025
83.080612 0.006791521191870773
83.085777 0.12136607270282239
85.064903 0.03310866581037002
89.112099 0.0043815316528143765
91.048233 0.006426638770817057
91.054291 0.10099592302746475
92.366013 0.005880786439321378
93.069992 0.5353604905903003
95.085632 0.7190817321910159
97.064583 0.024691358024691357
97.101013 0.04343572110624111
99.044037 0.0057557259321053865
101.059891 0.02959961510789779
105.069908 0.15511475405012132
107.085533 0.5248436375834779
109.064453 0.006086768451206539
109.101173 0.3520570982136946
111.080147 0.0056130098238706665
111.116623 0.007821431251296583
115.075447 0.008985229618447749
117.069801 0.01748051630862579
118.640556 0.0041372958387219695
119.076714 0.005980834845094171
119.085602 0.14438456253098925
121.06459 0.01746874590794664
121.101173 0.5065347793270568
123.080704 0.013750770593419464
123.116623 0.0953314177006228
125.174568 0.00414465233914644
127.075623 0.006063227649848235
129.091599 0.004725815872679576
131.08548 0.020820367501335205
133.101196 0.14682544937182843
135.080811 0.03364127644110165
135.116821 0.4976039878117501
137.095947 0.007953848258937045
137.132462 0.030786954276407263
139.075745 0.006457536072599831
143.085434 0.019861079845984307
145.101181 0.0433886395035245
147.116898 0.11562505977156595
149.095749 0.02381299187400963
149.132492 0.28202321417273946
151.111847 0.009507541148585125
151.148392 0.010419747201219413
153.090744 0.03150053481758086
155.106506 0.005074513992799457
157.101379 0.010134314984749974
159.116608 0.0483057243872403
161.097122 0.005836647436774557
161.132553 0.07090342239112747
163.111832 0.036252834091788526
163.13356 0.007546298135421402
163.14798 0.15569003238331486
165.125641 0.004633123967331253
165.16391 0.005329048907486122
167.106567 0.04116844767541943
169.121857 0.004890601482187705
171.116547 0.008713039102742357
173.132553 0.019922874449549856
175.111435 0.005688046128200262
175.148056 0.05501191017418722
177.127213 0.038506865821846155
177.163773 0.08419514735806
179.106506 0.005392314811136565
181.122604 0.06461802842846023
185.131943 0.01662569095930237
187.147415 0.007887639755116815
189.163254 0.05963179244075442
191.142532 0.02381593447417942
191.178955 0.025946376997105954
193.12175 0.004714045472000424
195.138 0.1561682049109054
199.147217 0.0069710198022278425
201.162674 0.008473217188904631
203.141693 0.005198103199930555
203.179321 0.04499382789614387
205.158585 0.019596245830703383
205.193832 0.012913600845114769
207.137772 0.008448205087461434
209.153763 0.06220803888940384
213.162735 0.005679218327690898
215.172943 0.004616939666397419
217.159195 0.006038215548405037
217.195099 0.025593264976731388
221.153854 0.03374132484687444
223.168808 0.027224936770878852
227.179214 0.007043113506387649
231.175461 0.013784610495372026
231.209961 0.028013553616382043
235.168671 0.04603403705616394
237.182617 0.014657091445714176
245.225891 0.024249967999223153
249.184708 0.0792044974700995
263.200195 0.06627765492422069
277.215363 0.016894938874837975
289.216309 0.006603194781004339
299.272217 0.006531101076844533
303.231415 0.00976648996352647
323.27298 0.047502394540888164
341.282776 0.07197305755284542
357.37674 0.0049126709834611156
359.294098 1.0
END IONS

BEGIN IONS
CHARGE=1+
PRECURSORTYPE=M+H-H2O
FORMULA=C18H17NO4
ONTOLOGY=
INCHIKEY=QCTRFEAQMSEZIE-UHFFFAOYSA-N
INCHI=InChI=1S/C18H17NO4/c1-10(2)9-14(18(22)23)19-16(20)12-7-3-5-11-6-4-8-13(15(11)12)17(19)21/h3-8,10,14H,9H2,1-2H3,(H,22,23)
SMILES=CC(C)CC(C(=O)O)N1C(=O)c2cccc3cccc(c23)C1=O
IONMODE=positive
INSTRUMENTTYPE=LC-ESI-Orbitrap
INSTRUMENT=Orbitrap
COMMENT=DB#=CCMSLIB00010121115; origin=GNPS
NUM_PEAKS=22
COMPOUND_NAME="2-(1,3-Dioxo-1H-benzo[de]isoquinolin-2(3H)-yl)-4-methylpentanoic acid "
PRECURSOR_MZ=294.112
COLLISION_ENERGY=205060
PARENT_MASS=293.10472354800925
53.00267 0.0033590185402164172
67.054466 0.0019182576331931904
69.070297 0.15229498931697566
73.941483 0.001547177613894824
103.054176 0.0419634709490661
103.061783 0.001600661658281067
118.645119 0.0018024674340064786
124.675873 0.0014749465848783515
131.049118 0.06669074367633883
149.060547 0.001994899717416776
152.049591 0.002424977600110276
155.049042 0.06535695085808808
170.059875 0.030594527534633674
180.044312 0.6303276586946034
188.057358 0.0015559997243090496
198.054886 1.0
210.054825 0.23696133434420016
228.065308 0.22956234061616929
239.081253 0.0034246329864222208
244.50174 0.0016420153008477496
266.117249 0.5249657453994072
294.111237 0.032089875249844926
END IONS

BEGIN IONS
CHARGE=1+
PRECURSORTYPE=M+H-H2O
FORMULA=C6H10O4
ONTOLOGY=
INCHIKEY=WNLRTRBMVRJNCN-UHFFFAOYSA-N
INCHI=InChI=1S/C6H10O4/c7-5(8)3-1-2-4-6(9)10/h1-4H2,(H,7,8)(H,9,10)
SMILES=O=C(O)CCCCC(=O)O
IONMODE=positive
INSTRUMENTTYPE=LC-ESI-Orbitrap
INSTRUMENT=Orbitrap
COMMENT=DB#=CCMSLIB00010124028; origin=GNPS
NUM_PEAKS=37
COMPOUND_NAME=adipic acid
PRECURSOR_MZ=129.055
COLLISION_ENERGY=205060
PARENT_MASS=128.04772354800926
55.051971 0.027741646699491824
55.054798 0.5149108717975723
55.934959 1.0
57.134602 0.014565944337660286
59.049629 0.12458990494747096
62.056049 0.015092551146686327
65.711166 0.013881355485926433
67.574471 0.014413228363042735
69.934357 0.08695331630637984
70.942146 0.035882987967034416
70.958153 0.07789041312304168
75.026527 0.16003054319492352
75.030457 0.01775191553226783
82.178169 0.014539613997208984
83.049622 0.21910529503146475
87.944817 0.09478395955659706
88.968819 0.11570604807920166
93.036903 0.14206798493904527
95.72937 0.01565075436425393
95.7453 0.016335343215987782
101.059753 0.08502066931725427
105.955116 0.06594170462624081
107.950401 0.018931514784486164
111.044441 0.03530898654519603
112.417168 0.01475552278890966
123.965538 0.023391874456936728
128.950974 0.6520287527317729
128.960831 0.02341293872929777
128.970749 0.017514942468206115
129.072845 0.08574212064561995
129.104904 0.032391584823191766
146.961472 0.41545064377682406
146.981766 0.07394612812343664
149.954041 0.01900523973774981
169.977402 0.09932331025040153
191.048965 0.019121093235735537
214.252136 0.020795702888438346
END IONS

BEGIN IONS
CHARGE=1+
PRECURSORTYPE=M+H-H2O
FORMULA=C7H5NO4
ONTOLOGY=
INCHIKEY=GJAWHXHKYYXBSV-UHFFFAOYSA-N
INCHI=InChI=1S/C7H5NO4/c9-6(10)4-2-1-3-8-5(4)7(11)12/h1-3H,(H,9,10)(H,11,12)
SMILES=O=C(O)c1cccnc1C(=O)O
IONMODE=positive
INSTRUMENTTYPE=LC-ESI-Orbitrap
INSTRUMENT=Orbitrap
COMMENT=DB#=CCMSLIB00010125384; origin=GNPS
NUM_PEAKS=37
COMPOUND_NAME=quinolinic acid
PRECURSOR_MZ=150.019
COLLISION_ENERGY=205060
PARENT_MASS=149.01172354800926
51.063591 0.0018166726426911669
52.019001 0.003908378231127792
55.84581 0.002131578089565861
55.935169 0.013010950094762674
56.050129 0.004393833208380094
64.085876 0.0019394915877753822
66.034592 0.0034447512654425905
66.736267 0.0022782623272967727
67.018806 0.006844391306979842
68.050262 0.04658010356372848
71.930061 0.0028405519052652657
75.732101 0.0018818656372382384
78.0345 0.13982471233591157
82.33931 0.002174360992237377
84.045197 0.008180847695194811
89.940727 0.002343164281689616
90.903687 0.004058263910555211
90.947861 0.0022634192794311445
92.367653 0.002371104136495504
94.030022 0.0032835150200002795
96.04496 1.0
97.007843 0.0023443284423065283
99.003723 0.013003383050752746
105.935371 0.008147669117612819
109.016411 0.0036118083139694617
110.02771 0.0021976442045756168
112.039642 0.11671204952804928
122.023033 0.01829449305461776
122.034126 0.00405127894685374
123.945976 0.00278758259719577
124.039574 0.4341745751977909
136.192062 0.0022168528547546647
136.202667 0.0024589982630723595
140.034332 0.10613623240371227
149.979019 0.003924385439610332
150.018677 0.20630934308744708
157.04213 0.0019252306202182103
END IONS

BEGIN IONS
CHARGE=1+
PRECURSORTYPE=M+H-H2O
FORMULA=C26H44O5
ONTOLOGY=
INCHIKEY=FPDXMWHJGOCDQJ-UHFFFAOYSA-N
INCHI=InChI=1S/C26H44O5/c1-5-31-23(30)9-6-15(2)18-7-8-19-24-20(14-22(29)26(18,19)4)25(3)11-10-17(27)12-16(25)13-21(24)28/h15-22,24,27-29H,5-14H2,1-4H3/t15-,16+,17-,18-,19+,20+,21-,22+,24+,25+,26-/m1/s1
SMILES=CCOC(=O)CCC(C)C1CCC2C3C(O)CC4CC(O)CCC4(C)C3CC(O)C12C
IONMODE=positive
INSTRUMENTTYPE=LC-ESI-Orbitrap
INSTRUMENT=Orbitrap
COMMENT=DB#=CCMSLIB00010124920; origin=GNPS
NUM_PEAKS=136
COMPOUND_NAME="ethyl 4-((1S,2S,7S,11S,16S,5R,9R,10R,14R,15R)-5,9,16-trihydroxy-2,15-dimethylt etracyclo[8.7.0.0<2,7>.0<11,15>]heptadec-14-yl)pentanoate "
PRECURSOR_MZ=419.316
COLLISION_ENERGY=205060
PARENT_MASS=418.3087235480092
53.038891 0.00868560806574765
55.05471 0.05003281039979899
59.049419 0.006498654651636495
67.054611 0.07768868419319348
69.070137 0.034158187597424935
79.054482 0.07317816900893077
81.070107 0.1503484732796495
83.048782 0.018951969965677152
83.0858 0.02587386657754598
85.064552 0.025429889420414655
91.054337 0.0873464070782644
92.371834 0.005558252486394051
93.069969 0.13564965811319465
95.085571 0.19372162632247866
101.059647 0.09985582939567879
103.054176 0.005264300577414248
105.069862 0.21386038138125685
107.085442 0.1701518060356499
108.633217 0.003560355279303102
109.06414 0.015223293676252832
109.093536 0.003555476409444516
109.101097 0.08103680863364811
111.079826 0.004784951613808178
113.096237 0.005837567785798098
117.069748 0.03800151732852602
118.650612 0.0038225945342020974
119.076874 0.0071280288633940835
119.08551 0.1706079803674277
121.101181 0.05910384918437493
123.080254 0.03278722516716228
123.116173 0.008760010831091085
128.061569 0.006502313804030434
129.069229 0.019954577721616566
129.091232 0.027670510402970257
130.064957 0.03301897148544511
131.060303 0.006582815156697103
131.085449 0.09697119759178983
133.076599 0.025784827202626783
133.101135 0.16349946698346796
135.079544 0.00540578780331324
135.116684 0.03829912838989977
137.095428 0.006446206800656696
139.012054 0.04909850682187978
142.076736 0.0053216272982526324
143.085403 0.06206410347107196
144.092804 0.007197552758878933
145.101105 0.14803101009682118
147.104202 0.005818052306363754
147.116608 0.12325732867238633
149.095856 0.008318473108889057
149.132187 0.019928963654858987
151.111496 0.004326337847101097
155.084793 0.015809977776747794
156.067749 0.005825370611151633
156.092743 0.004720306588181913
157.076035 0.35256299230846166
157.100082 0.11925665538834584
157.961533 0.004153137967121296
158.079285 0.016529611080889222
159.116684 0.13737555832566944
161.132233 0.06117370972188002
163.110748 0.00924179922962645
165.008667 0.005148427418272831
167.006912 0.08070992435312284
169.100601 0.037750255530808845
169.120956 0.00852216592548502
171.043106 0.019686239879394336
171.116623 0.10498352161705263
172.122833 0.006962147288202161
173.094849 0.005124033068979902
173.13269 0.045960173785344366
175.111176 0.023589335766263105
175.147354 0.021943936906454988
181.100418 0.00529479351403041
183.0914 0.03498271660352596
183.116699 0.046430984726697905
185.070755 0.24496683588213627
185.090546 0.008608765865474922
185.132324 0.07074971153681961
186.074326 0.007436617381949645
187.110992 0.01671866728790943
187.147171 0.02292337003056612
189.126007 0.015652634223808398
189.162704 0.008262366105515319
196.124527 0.007176817561979943
197.131393 0.02068884763533375
198.079224 0.004295844910484935
198.14032 0.005016697932091011
199.148193 0.07549685190922374
201.163773 0.03414111155291988
208.258392 0.01547455547397001
209.131851 0.04099104483437457
211.085953 0.0596539417609305
211.1474 0.04086663365298062
213.163452 0.13444335754065928
215.178421 0.019732589143050903
221.15387 0.006614527810777911
223.148132 0.012836306597939653
225.162567 0.023313679619252996
227.143188 0.03241155218805116
227.178284 0.04507099975361707
229.158096 0.019587442764757972
231.173492 0.006513291261212252
235.169479 0.005072804935464749
237.162964 0.007217068238313277
239.178818 0.026645947732667204
241.158417 0.0074695497534951
241.194275 0.025651877998980315
243.174774 0.004716647435787974
245.190521 0.007234144282818328
251.178513 0.0041458196623334175
253.193069 0.006360826578131442
255.174881 0.005227709053474853
269.05365 0.027958363724626827
273.183014 0.014592699747030598
275.201202 0.008705123545181994
287.198883 0.005399689215990008
289.21521 0.006845054411596098
295.204773 0.005864401570020321
295.240479 0.01405358462765685
307.081421 0.007173158409586004
309.256805 0.008252608365798147
311.063232 0.03341050079159663
319.240784 0.06443767365727403
323.093292 0.014870795328969998
324.097382 0.041708238703586704
325.091278 1.0
337.252228 0.13199172543671983
341.244751 0.006814561474979936
355.262146 0.06133105327481942
361.232117 0.004404399764838473
383.293732 0.9538617474648172
401.304016 0.1646679563145993
401.363739 0.005766824172848601
419.133209 0.29882955912092524
419.313477 0.0336141936081926
END IONS

BEGIN IONS
CHARGE=1+
PRECURSORTYPE=M+H-H2O
FORMULA=C20H34O5
ONTOLOGY=
INCHIKEY=GMVPRGQOIOIIMI-UHFFFAOYSA-N
INCHI=InChI=1S/C20H34O5/c1-2-3-6-9-15(21)12-13-17-16(18(22)14-19(17)23)10-7-4-5-8-11-20(24)25/h12-13,15-17,19,21,23H,2-11,14H2,1H3,(H,24,25)/b13-12+/t15-,16+,17+,19+/m0/s1
SMILES=CCCCCC(O)C=CC1C(O)CC(=O)C1CCCCCCC(=O)O
IONMODE=positive
INSTRUMENTTYPE=LC-ESI-Orbitrap
INSTRUMENT=Orbitrap
COMMENT=DB#=CCMSLIB00010121314; origin=GNPS
NUM_PEAKS=153
COMPOUND_NAME=alprostadil
PRECURSOR_MZ=337.237
COLLISION_ENERGY=205060
PARENT_MASS=336.22972354800925
53.002781 0.011049864943255723
53.039001 0.06327606518500346
55.018341 0.12580848774778505
55.054741 0.3197688830283376
55.057652 0.01475018974386495
57.034012 0.10233391342568812
57.070389 0.10093606973374528
59.049679 0.01787297766261113
65.039093 0.04392857964259156
67.054649 1.0
69.034012 0.032132516604185354
69.070236 0.33374731994776613
70.379517 0.006705560964639921
71.013107 0.3426991416166433
71.049553 0.05001827163143947
71.086029 0.041789648801355425
73.065079 0.009217590853451293
73.144096 0.00815451411515472
79.05452 0.5610438595818735
81.033813 0.04528809124060544
81.070152 0.818500090719289
82.400078 0.008059961616796613
83.049347 0.1503819154291789
83.085777 0.2683399903403123
85.065071 0.04103578428741915
85.844017 0.008680941538445813
86.924812 0.008003741212367467
91.054367 0.5383461490300703
91.128357 0.007359762034360889
93.07 0.7248266750486179
95.049217 0.238670949639295
95.085587 0.4971749246774354
97.064659 0.08154258567861862
97.101173 0.04316960418279809
99.080406 0.013211795040849236
105.069923 0.46266070730379716
107.049088 0.09265378197216068
107.08551 0.2920880002657692
109.064796 0.13832008320619857
109.101334 0.16954285144780318
111.044296 0.009562579698811961
111.08049 0.13469897806637585
115.054573 0.014918850957152386
117.069794 0.18688173526833743
119.048927 0.01213082999205248
119.085487 0.32370942228423505
121.064812 0.13781154409340765
121.101196 0.16845421998022064
123.0438 0.05355249069168986
123.080307 0.04611861994239964
123.11647 0.05679027489222293
125.096252 0.03979126897119215
128.063126 0.008647720390374045
129.069839 0.1671483733137073
130.077286 0.007523312301791131
131.085495 0.26595062315207363
133.064804 0.10548736701957748
133.100906 0.16800956769064468
135.080475 0.06066181637904819
135.116669 0.11350388559658793
136.213058 0.008542946000301546
137.059738 0.012953692275060885
137.096313 0.01359000503428167
137.132217 0.013618115236496243
139.111572 0.017308218145391078
141.069443 0.012713477819772716
142.077286 0.009631577467884093
143.08551 0.11559681792510931
145.065369 0.013860885164713007
145.101105 0.13625015013403455
147.080383 0.10154938323660868
147.116653 0.16035848174242368
149.096329 0.029853034751876357
149.132065 0.07676896224799842
151.147812 0.009140926665593367
153.127838 0.03501509006764337
157.100891 0.11501672557031767
159.080872 0.0170756701088887
159.116821 0.11938658427821945
161.09613 0.034284224810064476
161.132797 0.08305798112527694
163.112534 0.017678761720037718
163.148453 0.03316237219441016
165.127258 0.041608210223425
165.525543 0.007132324943715709
167.085876 0.009475693619239644
169.101974 0.014175208334930503
171.116928 0.08658964471259874
173.096664 0.008841936332947458
173.132217 0.11661645162361972
175.111298 0.056248514631360255
175.147491 0.056123296457858976
177.127579 0.0521623134185328
179.142944 0.008241400194727038
181.102768 0.010893981094611274
183.116745 0.01775031496203845
185.132446 0.08523013311458486
187.111191 0.008836825387090262
187.148026 0.03977082518776337
189.127594 0.07737716480500464
191.142746 0.0793883219998109
193.122665 0.08964599033520139
193.15863 0.013773999085140692
195.117859 0.009276366730809038
195.137619 0.009657132197170069
197.133469 0.009703130709884825
199.112396 0.011205748791900174
199.14859 0.036602038756302434
201.127014 0.015703381146231828
203.106903 0.047697902212272915
203.142426 0.0792835476097384
205.122421 0.01501851440136769
207.138168 0.030371795756381655
209.115021 0.020957433487428352
209.152939 0.008049739725082222
209.794037 0.00873460646994636
209.81189 0.009537024969525985
211.133667 0.03461132534492496
213.129013 0.0077865260134366765
213.163513 0.011024310213969749
217.122818 0.012762031805416069
217.158142 0.012698144982201131
219.138565 0.030596677374098238
220.075836 0.008604277350587887
221.09407 0.008297620599156183
221.11734 0.03306015327726626
221.153259 0.03275605199876315
229.195267 0.01492396190300958
231.138443 0.01278247558884485
231.211639 0.009250812001523062
245.152328 0.01027811211881927
245.226318 0.01660035214416956
247.20578 0.02847307937043369
249.148071 0.009833459829243298
249.221863 0.03861830689696589
253.193939 0.008790826874375506
255.210037 0.10889636790632659
257.19101 0.01580304459044713
259.168182 0.008841936332947458
261.220703 0.015593495810302133
263.200409 0.10123250459346259
265.218994 0.09866169882729348
271.205566 0.01282336315570241
273.220825 0.1967535271915097
273.252167 0.012943470383346494
275.200653 0.10621056585837058
283.205536 0.14625227117656528
289.21579 0.6247517996918099
289.401459 0.008210734519583866
291.231506 0.24407577488327878
301.215729 0.9090583848899997
319.226227 0.9374292453432894
337.236938 0.2121885836802388
END IONS

BEGIN IONS
CHARGE=1+
PRECURSORTYPE=M+H-H2O
FORMULA=C14H15N3O3S
ONTOLOGY=
INCHIKEY=HDUVMUHMMQPXOZ-UHFFFAOYSA-N
INCHI=InChI=1S/C14H15N3O3S/c1-7-4-5-8-10(15)11(21-12(8)16-7)13(18)17-6-2-3-9(17)14(19)20/h4-5,9H,2-3,6,15H2,1H3,(H,19,20)/t9-/m0/s1
SMILES=Cc1ccc2c(N)c(C(=O)N3CCCC3C(=O)O)sc2n1
IONMODE=positive
INSTRUMENTTYPE=LC-ESI-Orbitrap
INSTRUMENT=Orbitrap
COMMENT=DB#=CCMSLIB00010117527; origin=GNPS
NUM_PEAKS=61
COMPOUND_NAME="(2S)-1-[(3-amino-6-methylthiopheno[2,3-b]pyridin-2-yl)carbonyl]pyrrolidine-2-c arboxylic acid "
PRECURSOR_MZ=288.08
COLLISION_ENERGY=205060
PARENT_MASS=287.0727235480092
50.84428 0.0009554532718573569
55.16449 0.0009564447487911417
68.049873 0.009131833052469951
70.06546 0.24398132189653673
73.958977 0.0010479911190106118
81.057343 0.0012918944447216907
92.049667 0.000933310287002828
94.065018 0.002216281439320455
104.291992 0.0011530876739918085
109.075813 0.0022417293472876
110.05999 0.023103726003366395
111.055267 0.0014392940155443753
114.054733 0.003200487542257573
117.477837 0.0008652288708829334
119.060509 0.0033145073896428336
122.058952 0.00110053939650121
125.029228 0.001198365120634651
126.036911 0.0038786577649664268
128.932327 0.0009551227795460953
138.036392 0.001145486350832791
150.036835 0.010131572294036365
151.032303 0.022503551966115285
152.016296 0.03592848014187374
163.032211 0.07939020202664496
166.03157 0.0013917031227227014
175.032227 0.01273849564526806
176.040482 0.0009290138869564269
177.047333 0.0013064361064172023
182.103668 0.0010238651802885132
189.048309 0.0017416944803487619
191.0271 0.28266346397584236
193.042816 0.003444390867968652
194.027069 0.009571718318759173
199.073166 0.003959628381225525
200.118088 0.0041367722600617555
203.0271 0.015133242932669794
203.062851 0.001565542078446316
209.037659 0.007324701094491387
210.102432 0.0010658377038187394
211.110062 0.0016739435565401289
215.063263 0.005465020859022225
216.058655 0.011887147451458116
217.042786 0.0015933034325922924
217.079681 0.006539120870622505
219.021942 0.3727179919022774
226.097717 0.011265491413974999
227.063232 0.00468076260439839
227.104858 0.0034500092372600996
231.059753 0.008263299258474402
232.054153 0.006571839609437406
232.089844 0.0045346850028207515
242.075104 0.006518960839635547
243.058487 0.00449172100235674
244.090454 0.022011779406957987
245.072495 0.0016065231250427575
258.068604 0.0037134116093356147
259.052551 0.013691635470946586
260.051239 0.005050253008388886
260.084564 0.08149048066471258
270.070831 0.0017605325420906746
288.080841 1.0
END IONS

BEGIN IONS
CHARGE=1+
PRECURSORTYPE=M+H-H2O
FORMULA=C30H48O3
ONTOLOGY=
INCHIKEY=QGJZLNKBHJESQX-UHFFFAOYSA-N
INCHI=InChI=1S/C30H48O3/c1-18(2)19-10-15-30(25(32)33)17-16-28(6)20(24(19)30)8-9-22-27(5)13-12-23(31)26(3,4)21(27)11-14-29(22,28)7/h19-24,31H,1,8-17H2,2-7H3,(H,32,33)/t19-,20+,21-,22+,23-,24+,27-,28+,29+,30-/m0/s1
SMILES=C=C(C)C1CCC2(C(=O)O)CCC3(C)C(CCC4C5(C)CCC(O)C(C)(C)C5CCC43C)C12
IONMODE=positive
INSTRUMENTTYPE=LC-ESI-Orbitrap
INSTRUMENT=Orbitrap
COMMENT=DB#=CCMSLIB00010124192; origin=GNPS
NUM_PEAKS=86
COMPOUND_NAME=betulinic acid
PRECURSOR_MZ=439.357
COLLISION_ENERGY=205060
PARENT_MASS=438.34972354800925
53.039169 0.009065824707463104
53.73325 0.004196663048307138
55.054741 0.05995970442667116
56.786781 0.0040200472515185565
57.070339 0.09374766493537899
65.039238 0.0060918864061538375
67.054672 0.21676328456473037
69.070236 0.17729644689774354
71.085907 0.007726261817974325
75.065514 0.003927663603967606
79.054527 0.07654256916206673
81.070183 0.7679893378402062
83.085854 0.06929860432763045
85.101349 0.00540444338173059
87.66468 0.003765992220753443
87.808182 0.00370078023424689
88.873306 0.004123299563487265
91.054352 0.03371731418999241
93.069977 0.10713106658279681
95.08564 1.0
97.10112 0.033465976325331735
104.280281 0.004571631970719818
104.940941 0.003943966600594245
105.069931 0.08511251105546959
107.085503 0.11750520676954763
109.101212 0.32092992292758343
111.116676 0.01600274977209769
117.070229 0.022086484679938213
119.085716 0.07629530704656272
121.101067 0.07144652413319005
123.116798 0.260610193992074
125.132713 0.007621650922953397
129.069794 0.00910929936513414
131.085495 0.07181334155728941
133.101074 0.06472968952301508
135.116898 0.055244062652416034
137.132538 0.4056185560707604
143.085403 0.03766128079058665
145.101044 0.08950888581245305
147.117081 0.03884053087991349
149.132416 0.04333336503360455
151.148315 0.03370644552557465
157.100891 0.046892852630420576
159.116928 0.05064933476980848
161.133163 0.026052188609367973
163.148407 0.016717364457565338
169.101334 0.003975214010795301
171.116776 0.07279559710404436
173.132416 0.0636985249863802
175.147964 0.04007684145743356
177.163895 0.01575412907354146
179.179382 0.0938169526710422
185.132233 0.047095281505201335
187.14801 0.04808840571637405
189.163361 0.008481633995008566
191.180191 0.009050880293888687
192.805145 0.00427002653312701
193.195541 0.016616829311701067
199.147614 0.06937060922939811
201.163925 0.04346514758966988
203.179764 0.016153552490894098
205.196213 0.015673972673460487
213.163696 0.07603989343274538
215.179428 0.06524866824896307
217.12207 0.00559192784293693
219.137131 0.007474923953313652
225.163391 0.0049792068863857755
227.179779 0.026413571701258454
231.173676 0.006134002480772653
233.154037 0.00833898277452548
241.194565 0.05825604127918746
243.21048 0.04516881073715358
245.153824 0.02085289126852258
255.209732 0.03427433324140255
259.169373 0.07683602310134623
261.185577 0.006248123457159122
269.225311 0.04198972639495911
273.185089 0.007656974082311113
287.201202 0.030756961719205337
289.217163 0.014947130740522865
301.217316 0.01889109734111711
315.232544 0.008178669974363537
393.351318 0.2039369019687227
421.343262 0.004427622167184514
439.165192 0.00654837031169971
439.357239 0.19392142770775792
END IONS

BEGIN IONS
CHARGE=1+
PRECURSORTYPE=M+H-H2O
FORMULA=C22H30O6
ONTOLOGY=
INCHIKEY=BOJKFRKNLSCGHY-UHFFFAOYSA-N
INCHI=InChI=1S/C22H30O6/c1-11-6-16-20(26,18(11)25)9-14(10-23)7-15-17-19(4,5)21(17,28-13(3)24)8-12(2)22(15,16)27/h6-7,12,15-17,23,26-27H,8-10H2,1-5H3/t12-,15+,16-,17-,20-,21+,22-/m1/s1
SMILES=CC(=O)OC12CC(C)C3(O)C(C=C(CO)CC4(O)C(=O)C(C)=CC43)C1C2(C)C
IONMODE=positive
INSTRUMENTTYPE=LC-ESI-Orbitrap
INSTRUMENT=Orbitrap
COMMENT=DB#=CCMSLIB00010124934; origin=GNPS
NUM_PEAKS=88
COMPOUND_NAME=12-Deoxyphorbol-13-acetate
PRECURSOR_MZ=373.201
COLLISION_ENERGY=205060
PARENT_MASS=372.19372354800925
55.054741 0.017702566872196467
65.241623 0.011051602482359943
67.054527 0.01900275539953293
69.033829 0.026203799550934884
69.070267 0.028379114971670893
79.054733 0.01814763140655395
82.069923 0.011916727925549205
91.054703 0.018407669112021244
92.368843 0.01849268143880863
105.069878 0.0752609128323607
118.031036 0.011576678618399668
119.085426 0.018812727845537603
129.069977 0.016657415325222157
131.085007 0.022713293427546993
141.070602 0.016832440703902066
143.085968 0.056573203114451596
145.064896 0.0524726085282366
145.101364 0.013261922978831931
153.070068 0.018027614004030586
155.085892 0.09533382340439364
156.093338 0.021968185386881098
157.101593 0.04791194723234869
159.0802 0.01831265533502358
161.060226 0.016197348615549254
165.069901 0.056328167584299725
166.077774 0.019867880842722195
167.085358 0.042276130038855636
168.093704 0.018892739447219847
169.101669 0.04539658250446315
170.109619 0.015557255802091304
171.080811 0.015402233323831956
171.116562 0.023293377539743264
173.095764 0.018717714068539937
179.085953 0.06965009926439333
180.094009 0.0232983782648484
181.06662 0.013812002740397358
181.101089 0.08102674887858739
182.072647 0.014812147761425407
182.108749 0.019847877942301632
183.080353 0.01670742257627356
183.116928 0.05641317991108711
185.095703 0.01978286851593481
185.133286 0.022583274574813347
191.086914 0.013426946907301559
192.093521 0.06457436328267599
193.101303 0.07188542338639102
194.109314 0.018267648809077316
195.080246 0.0678798425771737
195.116455 0.05639817773577169
196.088806 0.05723829955343525
197.096375 0.051497467132734245
197.13266 0.04996224452545619
199.111938 0.015217206494941767
205.100372 0.023983477604252616
206.10907 0.018387666211600682
207.115906 0.09199333903415996
208.088593 0.016172344990023554
209.096619 0.07317561046351721
209.131973 0.06453435748183486
210.103439 0.050372303984077695
211.111572 0.05587310159973196
213.127625 0.015352226072780552
219.117889 0.055918108125678226
220.088669 0.014972170964789894
221.095215 0.026378824929614793
222.103943 0.01751253931820114
223.111542 0.05584309724910112
225.091064 0.026773882212920874
225.127411 0.07701116661915978
234.138947 0.021853168709462873
235.111725 0.027468983002535367
237.127014 0.021163068644953518
237.163528 0.02055798090723155
239.107544 0.020502972931075007
239.179871 0.02685889453970826
247.112091 0.05779338004010581
249.163544 0.02221822164213811
253.12175 0.013246920803516509
255.174469 0.014312075250911382
265.158417 0.06673467652809657
267.173981 0.169334553510259
277.158844 0.07478084322226723
285.184448 0.025798740817418526
295.169006 1.0
296.728149 0.012061748953598272
313.179138 0.07704117096979061
332.152618 0.01428207090028054
373.149719 0.05330772962079502
END IONS

BEGIN IONS
CHARGE=1+
PRECURSORTYPE=M+H-H2O
FORMULA=C30H48O4
ONTOLOGY=
INCHIKEY=KLHSKTMVSOWVLD-UHFFFAOYSA-N
INCHI=InChI=1S/C30H48O4/c1-25(2)12-14-30(24(33)34)15-13-28(6)18(19(30)16-25)8-9-21-27(5)11-10-22(32)26(3,4)23(27)20(31)17-29(21,28)7/h8,19-23,31-32H,9-17H2,1-7H3,(H,33,34)/t19?,20-,21?,22+,23?,27-,28-,29-,30+/m1/s1
SMILES=CC1(C)CCC2(C(=O)O)CCC3(C)C(=CCC4C5(C)CCC(O)C(C)(C)C5C(O)CC43C)C2C1
IONMODE=positive
INSTRUMENTTYPE=LC-ESI-Orbitrap
INSTRUMENT=Orbitrap
COMMENT=DB#=CCMSLIB00010123630; origin=GNPS
NUM_PEAKS=127
COMPOUND_NAME=Sumaresinolic acid
PRECURSOR_MZ=455.352
COLLISION_ENERGY=205060
PARENT_MASS=454.3447235480092
53.039028 0.01782466753970157
55.054619 0.13292878617407825
57.033569 0.012785657635059114
57.070221 0.06465868638987772
65.038727 0.012593835881734511
67.054588 0.2930851946806352
69.070213 0.34421306970138515
70.408928 0.009535754468155744
71.049301 0.01760333474740395
72.399368 0.010336241400298799
79.054497 0.16261320250106057
81.06488 0.021410258774922995
81.070053 0.4913329767416124
82.270081 0.011302727926665068
82.381157 0.012394636368666655
83.085732 0.16645332644742425
85.064934 0.018831731744655734
91.054237 0.1882546064887397
93.069908 0.4638692660973495
93.0765 0.017389379714849586
95.085541 0.9169559363299334
97.064774 0.015544939779036095
97.101196 0.024427762509913863
105.069794 0.4695796521386281
107.085426 0.8132430787391408
109.101067 0.7022631278012431
111.080193 0.1268384455060221
113.095306 0.01683604773410554
117.069504 0.07184462437980707
119.085411 0.9497759005477987
121.101067 0.692236752310161
123.080093 0.04432189165759817
123.116592 0.18189497759005477
125.095718 0.016474537506686093
127.111893 0.016422893188483317
131.085464 0.19506796761163472
133.064529 0.013143478982606932
133.100983 0.8079827360422008
135.080383 0.07043178338897393
135.116669 0.3347584705904052
135.897873 0.010856373462198204
137.096039 0.028183042219230132
137.132248 0.056078351808473356
139.074585 0.013578766807458915
143.085236 0.05004334433849162
145.101151 0.43753435269380453
147.116608 0.5944261025139717
149.095505 0.017308224357673794
149.132233 0.26227198111293504
151.111755 0.027441577365033106
153.0905 0.08112215725694892
157.100586 0.07502443882914953
158.108032 0.0222587011453972
159.116684 0.40668056144751646
160.124374 0.018503421436080934
161.096054 0.017278713318700775
161.116959 0.013113967943633915
161.132141 0.3419038309017467
163.112259 0.022339856502572995
163.147873 0.30838666838814394
165.127075 0.012848368592876773
167.106003 0.013523433609384511
171.116684 0.10794769168342033
171.349365 0.01174170463138868
172.124146 0.01515022963277201
173.13237 0.3150561631960455
174.139404 0.013040190346201377
175.147903 0.3054872088090451
177.127609 0.022852610804729143
177.163849 0.2531235590313001
179.142563 0.05284689304092812
183.116272 0.011708504712544036
185.132294 0.11837984396038143
186.140106 0.04646144198314182
187.148056 0.3575778814762897
189.163498 0.9421104081745578
191.178879 0.14986443366471772
193.158218 0.023173543353560692
199.14772 0.07156426950956342
201.163376 0.49391150377187965
203.179276 0.578501208108158
205.158676 0.12384307505026099
205.194336 0.07731523322942989
207.174286 0.07873176310013465
211.148087 0.02162421380747736
213.163055 0.08559307966136083
215.179214 0.266337126731468
217.159149 0.0252393160816718
217.194717 0.07138720327572533
219.173508 0.10170241806075585
221.189865 0.05063725399782356
225.163254 0.0156002729771105
227.178955 0.07602043639448881
229.194687 0.22277145544755336
231.174347 0.01611671615913828
231.210693 0.019978973384731726
233.189972 0.06903000903775569
235.169205 0.08022575944814357
239.17662 0.01649298190604423
241.194687 0.08232473209509933
243.210068 0.11538447350462032
247.168701 0.0836342844495269
247.203568 0.02470442850028589
249.185104 0.06065625172916244
253.195892 0.018271022004168434
255.210037 0.06293966836969954
261.185272 0.05936514377409299
261.221008 0.23439142704317834
273.21936 0.04002065772728111
275.199738 0.09622074257151816
283.240662 0.017636534666248593
287.201569 0.020237194975745616
295.240509 0.01773982330265415
301.2164 0.016607337182064665
302.509369 0.011114595053212092
302.848267 0.012483169485585702
329.248077 0.02234354538244462
341.245941 0.022730877768965454
343.261078 0.019613774277440654
391.335999 0.18295368611321172
395.292511 0.014648541970230739
409.345856 1.0
411.361328 0.057594481435712046
418.823517 0.012387258608923401
419.332672 0.025268827120644818
437.340546 0.9104708855156132
455.351074 0.9771916557537303
END IONS

BEGIN IONS
CHARGE=1+
PRECURSORTYPE=M+H-H2O
FORMULA=C17H24O3
ONTOLOGY=
INCHIKEY=YKPUDDGWRMLKKI-UHFFFAOYSA-N
INCHI=InChI=1S/C17H24O3/c1-17(2)12-14(8-9-20-17)15(11-16(18)19)10-13-6-4-3-5-7-13/h3-7,14-15H,8-12H2,1-2H3,(H,18,19)
SMILES=CC1(C)CC(C(CC(=O)O)Cc2ccccc2)CCO1
IONMODE=positive
INSTRUMENTTYPE=LC-ESI-Orbitrap
INSTRUMENT=Orbitrap
COMMENT=DB#=CCMSLIB00010124633; origin=GNPS
NUM_PEAKS=99
COMPOUND_NAME="3-(2,2-dimethyl(2H-3,4,5,6-tetrahydropyran-4-yl))-4-phenylbutanoic acid "
PRECURSOR_MZ=259.169
COLLISION_ENERGY=205060
PARENT_MASS=258.1617235480092
50.481232 0.004958786312156594
53.038849 0.005285389105407068
55.054699 0.14540396185120055
57.033798 0.008601204049078045
57.070351 0.15110756185040397
59.04945 0.007818552233544895
59.754341 0.005064334775829004
61.527859 0.00517784916128801
62.893631 0.005185815083074607
65.038902 0.012315315082078867
67.05127 0.00645239664714352
67.054642 0.1095274416048146
69.070267 0.1314596157637626
71.049309 0.007784697065951858
71.085663 0.03594024762067874
73.950241 0.005627923742230737
79.054337 0.012040490780441272
81.070107 0.047080589239234555
83.049263 0.009359958099251402
83.085663 0.05793415767347288
85.065109 0.043904177926829026
91.054359 0.6793895714134931
91.265923 0.00538695460818618
93.069832 0.03297493323561802
95.085564 0.08714917582581716
97.064728 0.007045857820244992
97.101196 0.08995716325559258
99.080437 0.005717540362329953
103.054077 0.03101133351522188
105.069817 0.061933050410344546
107.085274 0.03664722317923921
109.101334 0.13843178880748158
111.080322 0.03171830907378236
113.096046 0.010491118992948167
115.054298 0.06514132540989646
117.060913 0.01089937248451126
117.069794 0.2645084329239513
119.085381 0.008599212568631396
121.101753 0.00710361075319782
123.079803 0.006105879049426553
125.096161 0.007386400976622011
128.061996 0.14498774243785087
129.069809 1.0
131.048584 0.011204068992848594
131.077011 0.005120096228335182
131.085709 0.08428940990442885
133.064407 0.03099341019120204
135.080093 0.04165778798300869
137.095917 0.006615698043768757
141.069824 0.27456939214042325
141.983887 0.005145985474141622
142.077591 0.03247308016306242
143.085526 0.7032793708514973
144.056992 0.035167553207378834
145.064743 0.3965734587434953
145.100662 0.04443789468653102
149.095764 0.013024282121085994
150.103806 0.013571939243914534
152.061981 0.07150012247604746
153.069809 0.053419471500919066
154.077011 0.007744867457018873
155.060471 0.019012663824160243
155.085388 0.11254254300104155
157.064743 0.7757652761486361
157.100998 0.35564853556485354
158.095566 0.005588094133297752
159.080307 0.02417657262232171
165.069565 0.10832060445414517
166.077606 0.11916819844704354
167.085434 0.9524573872971428
168.09314 0.006490234775629856
169.10112 0.051784466054220046
171.080551 0.07637725808989144
171.11644 0.04998018476955584
173.096512 0.0200342932932913
175.075378 0.05812334831590456
179.08519 0.027908606979342374
180.093491 0.01321944720485762
181.101135 0.23643055010664377
183.116547 0.053405531137792527
185.095993 0.2547641190984966
187.111252 0.029742760470706318
189.09082 0.023575145527433637
193.100754 0.008728658797663595
195.117264 0.06749525529783586
197.132263 0.07290809915182848
199.114182 0.04731359245149251
199.14798 0.23515401114034162
203.106018 0.04950820390369997
213.126846 0.02073330293006518
213.163162 0.018253909773986884
215.142883 0.3317248809592563
217.121353 0.01066437779180665
217.158264 0.020105986589370673
223.148132 0.221020474410472
241.158432 0.4643953168345817
259.168976 0.27273125568816603
259.199738 0.011893121227389229
268.925415 0.005468605306498798
END IONS

BEGIN IONS
CHARGE=1+
PRECURSORTYPE=M+H-H2O
FORMULA=C20H19NO5S
ONTOLOGY=
INCHIKEY=OUDDLDSJJYPMJB-UHFFFAOYSA-N
INCHI=InChI=1S/C20H19NO5S/c1-26-20(23)18(19(22)15-8-3-2-4-9-15)21-27(24,25)17-12-11-14-7-5-6-10-16(14)13-17/h2-13,18-19,21-22H,1H3
SMILES=COC(=O)C(NS(=O)(=O)c1ccc2ccccc2c1)C(O)c1ccccc1
IONMODE=positive
INSTRUMENTTYPE=LC-ESI-Orbitrap
INSTRUMENT=Orbitrap
COMMENT=DB#=CCMSLIB00010122646; origin=GNPS
NUM_PEAKS=83
COMPOUND_NAME=methyl 3-hydroxy-2-[(2-naphthylsulfonyl)amino]-3-phenylpropanoate
PRECURSOR_MZ=368.095
COLLISION_ENERGY=205060
PARENT_MASS=367.08772354800925
53.03912 0.014658685019883377
79.054604 0.02270590232658365
81.033813 0.0034665312812208198
89.039467 0.002851093422487479
91.054237 0.03041928132529727
93.908699 0.002652749391091986
95.049049 0.0048018845131674315
97.617119 0.002213617338043528
102.046547 0.010877088734059017
103.054176 0.5432251229243257
104.049423 0.03316671346388669
105.033447 0.12853182972777077
106.065071 0.16994573699091697
115.054123 0.05275951235120117
116.049393 0.061505423035985975
117.057251 0.18262587908033667
117.069397 0.011806775366814024
118.06517 0.0457056476626421
126.046852 0.002749064599753172
127.053963 0.05213591218664908
128.061768 0.009171983048523276
131.049408 0.02985853091554952
132.044571 0.005513637580561959
133.052078 0.0031735045023278895
134.06012 0.004544771879876978
135.081146 0.0033122637012465476
137.00563 0.005702186844974958
140.050064 0.005889919878806083
140.060913 0.007193440118059591
141.070175 0.01697596364182496
143.048508 0.0027433509856800505
144.044357 0.009616828715644855
145.053024 0.01605852046779807
145.064667 0.31049574580620726
147.026489 0.024926049509282174
152.666153 0.0027482483691712973
153.056412 0.0027449834468437997
155.060226 0.36182522217796437
159.026093 0.0798436755189594
162.055771 0.007829283741339793
166.064865 0.05388264563186042
167.072922 0.015903436657241924
175.021118 0.06283669511502321
177.078323 0.16965597513435154
182.060013 0.0035522354923176376
184.02179 0.01000045708912585
186.014893 0.005418954833064521
186.037201 0.011994508400645148
187.020813 0.02289037043808728
191.015976 0.25582380520167425
200.015732 0.0037130329169469058
202.031479 0.0037130329169469058
202.077744 0.05313824334119091
203.016052 0.015110060531659952
215.08519 0.037659246586523705
216.093979 0.01760201249812267
217.101349 0.10853826162475595
218.027008 0.014923143728410701
226.077744 0.009582547031206128
227.085495 0.005888287417642335
228.094299 0.009532756965711786
229.087891 0.010038819926473949
230.095901 0.011503137590356725
231.080429 0.004322757161607125
232.112625 0.017557936046701448
234.050354 0.004452537824125164
241.086578 0.004607621634681311
242.096527 0.04334592505044305
243.103897 0.6138813070137061
244.111679 0.24495487877343397
247.057983 0.013248238574404315
250.053146 0.028713359409179656
259.099182 0.011493342823374232
260.106415 0.0029612845510405307
262.067902 0.0730983459903489
263.051605 0.0368797463808336
272.10672 0.002968630626277401
273.060028 0.0051512312022096995
290.063599 0.024391418478154403
308.073395 1.0
322.089691 0.026977236961532685
336.068542 0.06761490894131629
368.094666 0.06753655080545634
END IONS

BEGIN IONS
CHARGE=1+
PRECURSORTYPE=M+H-H2O
FORMULA=C30H48O3
ONTOLOGY=
INCHIKEY=MIJYXULNPSFWEK-UHFFFAOYSA-N
INCHI=InChI=1S/C30H48O3/c1-25(2)14-16-30(24(32)33)17-15-28(6)19(20(30)18-25)8-9-22-27(5)12-11-23(31)26(3,4)21(27)10-13-29(22,28)7/h8,20-23,31H,9-18H2,1-7H3,(H,32,33)/t20-,21-,22+,23-,27-,28+,29+,30-/m0/s1
SMILES=CC1(C)CCC2(C(=O)O)CCC3(C)C(=CCC4C5(C)CCC(O)C(C)(C)C5CCC43C)C2C1
IONMODE=positive
INSTRUMENTTYPE=LC-ESI-Orbitrap
INSTRUMENT=Orbitrap
COMMENT=DB#=CCMSLIB00010125072; origin=GNPS
NUM_PEAKS=86
COMPOUND_NAME=OLEANOLIC ACID
PRECURSOR_MZ=439.357
COLLISION_ENERGY=205060
PARENT_MASS=438.34972354800925
50.751789 0.007445553973659784
53.038841 0.00848277844026545
55.054729 0.13825805748337633
56.704731 0.008770162289293134
57.07029 0.05925392510182307
65.404297 0.008595089369770522
67.054604 0.17787408623497428
69.066391 0.01610670859608035
69.070236 0.26660302380661377
71.085999 0.014699518714634444
79.05442 0.1550287218685896
81.064751 0.015948151989720247
81.070053 0.3932996620762327
82.398888 0.010269843524449098
83.085701 0.12475431984170765
91.054237 0.11943937026601174
93.069923 0.3825904846216608
93.615868 0.009671952987966215
95.085533 0.8321447093294047
97.100998 0.06268271171436027
101.924843 0.009998975988583925
104.285522 0.012879421004125775
105.06974 0.3924804529433722
107.085381 0.6360861623025061
109.101067 0.428826251688793
111.080688 0.00976114107904377
118.652786 0.008390287086555391
119.085411 0.6260145145360072
121.101067 0.45189623791418787
123.116837 0.1771407619305588
125.095268 0.010672841565614358
130.31926 0.009784263917471286
131.085632 0.06435746586903884
133.100952 0.5143312049311105
133.11203 0.020245696674605507
135.116669 0.3025425212482369
136.209396 0.012502849064020534
137.132401 0.07891824755310821
139.798965 0.009559642058461142
145.101257 0.07111263795250569
146.108566 0.011267428839464739
147.116653 0.4935569862353046
149.132309 0.2309707297898134
153.090698 0.06890605851399427
157.970108 0.014706125239899448
159.116714 0.07608735147705388
161.132187 0.29559245666945244
163.147751 0.17594498085759305
165.127045 0.009813993281163806
167.106339 0.01771209423547638
171.886444 0.009523306169503618
173.132111 0.06579438511417728
174.141388 0.011376436506337309
175.148026 0.14944951128229353
177.163193 0.08209598620557525
187.148163 0.04811532350502591
189.163467 0.636584954960014
191.179047 0.8253994470338353
199.148804 0.01308752654997341
201.163528 0.14468620656622547
203.179138 1.0
205.194763 0.22357142149300865
207.13559 0.010144319544414018
207.174179 0.011528386587432406
213.163559 0.015991094403942776
215.179367 0.0627223508659503
217.194122 0.16990001024011417
221.153015 0.01122118316260971
221.189178 0.047649563473843116
229.194214 0.015888693262335208
231.173523 0.016826819849965813
231.21022 0.05359873947497944
235.168427 0.07955577724118111
241.194504 0.01554845721118749
243.209976 0.014187513006596616
245.225647 0.05811099623097734
247.168884 0.06654422573175525
249.184143 0.24750686252811901
257.225861 0.012962002569938328
261.184387 0.05593744941879094
266.965698 0.008951841734080751
269.224274 0.011244306001037225
275.201599 0.011475534385312373
393.350494 0.10929174745896522
439.356049 0.6470496909797807
459.284668 0.010081557554396478
END IONS

BEGIN IONS
CHARGE=1+
PRECURSORTYPE=M+H-H2O
FORMULA=C30H48O3
ONTOLOGY=
INCHIKEY=MIJYXULNPSFWEK-UHFFFAOYSA-N
INCHI=InChI=1S/C30H48O3/c1-25(2)14-16-30(24(32)33)17-15-28(6)19(20(30)18-25)8-9-22-27(5)12-11-23(31)26(3,4)21(27)10-13-29(22,28)7/h8,20-23,31H,9-18H2,1-7H3,(H,32,33)/t20-,21-,22+,23-,27-,28+,29+,30-/m0/s1
SMILES=CC1(C)CCC2(C(=O)O)CCC3(C)C(=CCC4C5(C)CCC(O)C(C)(C)C5CCC43C)C2C1
IONMODE=positive
INSTRUMENTTYPE=LC-ESI-Orbitrap
INSTRUMENT=Orbitrap
COMMENT=DB#=CCMSLIB00010125073; origin=GNPS
NUM_PEAKS=75
COMPOUND_NAME=OLEANOLIC ACID
PRECURSOR_MZ=439.357
COLLISION_ENERGY=205060
PARENT_MASS=438.34972354800925
55.05471 0.10955850203869971
57.070351 0.04334905996115794
57.595188 0.00701343203148037
67.054558 0.18495480289180147
69.070183 0.21935086987910155
71.08593 0.010630725899112327
79.054321 0.12533681759484275
81.070068 0.3730896722828353
83.085678 0.110595646028857
91.054283 0.11942662206269637
93.069878 0.35312719249189095
95.085487 0.6967167275056687
97.101173 0.07593012496568273
105.069763 0.3395706020519182
107.08535 0.5948656288448047
109.101021 0.4760160452276124
111.11618 0.010633267918696046
119.085373 0.6396560139099312
121.101021 0.45383184032049784
123.116653 0.16051582661392824
131.085297 0.053850142861500604
133.101028 0.509377510244339
135.116608 0.29546147823522834
137.059509 0.00971814086855725
137.132431 0.06218796709609851
139.074829 0.01597150904450568
142.681793 0.0075192939286404265
143.085938 0.010157910256540616
145.100662 0.08380021759687636
147.103455 0.015219071247724892
147.116623 0.46532431085849085
149.132385 0.18729346090882285
150.991394 0.007565050281147366
153.0905 0.048333960364830654
157.100586 0.013221043854921859
159.11673 0.05951884653319369
160.124451 0.01231862690270166
161.132248 0.2617034581634417
163.147781 0.15537332099606496
165.089752 0.01035364576448697
167.105865 0.04265000457563525
170.832199 0.008032781884551638
171.116058 0.011736504418030036
173.131958 0.05218766205374846
175.147659 0.15325327666324343
177.163818 0.07964909961666344
179.107162 0.010040977355689549
187.14772 0.05267064577465505
189.163452 0.5765757979399473
191.179108 0.8113313064963853
201.163391 0.15920922854789674
203.179184 1.0
205.194672 0.21764517473842618
207.137512 0.013032934405726662
207.174179 0.014469175470527824
213.163162 0.012506736351896855
215.179321 0.07118163238329588
217.158585 0.009883372141498979
217.194839 0.15340071379909911
221.152161 0.009446144773099331
221.188889 0.052924847733026935
226.412872 0.00870387505465342
229.194244 0.012392345470629505
231.174011 0.039713971956439956
231.210693 0.06169227327727333
235.168777 0.09601970573581299
243.212219 0.011220474442535105
245.225525 0.041193427354164334
247.168289 0.06667463166136232
249.184601 0.26016045227612433
249.213562 0.012483858175643386
257.225006 0.009997763022766327
261.18454 0.0185465748828129
393.349792 0.1083866310106053
439.35611 0.6377545832613094
END IONS

BEGIN IONS
CHARGE=1+
PRECURSORTYPE=M+H-H2O
FORMULA=C18H24O2
ONTOLOGY=
INCHIKEY=VOXZDWNPVJITMN-UHFFFAOYSA-N
INCHI=InChI=1S/C18H24O2/c1-18-9-8-14-13-5-3-12(19)10-11(13)2-4-15(14)16(18)6-7-17(18)20/h3,5,10,14-17,19-20H,2,4,6-9H2,1H3/t14-,15-,16+,17-,18+/m1/s1
SMILES=CC12CCC3c4ccc(O)cc4CCC3C1CCC2O
IONMODE=positive
INSTRUMENTTYPE=LC-ESI-Orbitrap
INSTRUMENT=Orbitrap
COMMENT=DB#=CCMSLIB00010122871; origin=GNPS
NUM_PEAKS=39
COMPOUND_NAME=Epiestradiol
PRECURSOR_MZ=255.174
COLLISION_ENERGY=205060
PARENT_MASS=254.16672354800926
55.05489 0.0037432745890873614
56.556728 0.002203319667517262
58.35257 0.0024287411344190934
60.427151 0.002265355279945962
67.054893 0.06524404974106875
69.070442 0.01897574395827079
79.054497 0.003932401118282798
81.070419 0.0320499251820024
91.054977 0.004509396812143501
93.070389 0.009536832032422695
95.086029 0.06992638987916541
105.070427 0.024062957351395978
107.04937 0.02530466639147403
107.086327 0.0033809115599669768
109.101463 0.07520393181477034
115.054367 0.010735180642074451
117.069977 0.00991789956094266
121.064972 0.00960030419731312
123.116943 0.002585735796307415
129.069748 0.0022862879015310717
131.049194 0.013726757167517261
131.085693 0.055235236931477034
133.06488 0.3528289822406935
135.116745 0.009640234492269589
141.069931 0.02219406123348844
144.056885 0.04095534843140198
145.064789 0.06664325183878715
147.08017 0.02320067406559592
147.117157 0.003244966789252477
157.064911 0.00909449114380066
159.08046 1.0
161.096863 0.008781088167967577
169.076187 0.01014021338374362
173.095795 0.020336598900480337
174.519318 0.0026934772309366558
185.096985 0.003489297977334134
199.112015 0.002941678315445812
213.190231 0.002311706084884419
255.174088 0.33741231166504054
END IONS

BEGIN IONS
CHARGE=1+
PRECURSORTYPE=M+H-H2O
FORMULA=C18H24O2
ONTOLOGY=
INCHIKEY=VOXZDWNPVJITMN-UHFFFAOYSA-N
INCHI=InChI=1S/C18H24O2/c1-18-9-8-14-13-5-3-12(19)10-11(13)2-4-15(14)16(18)6-7-17(18)20/h3,5,10,14-17,19-20H,2,4,6-9H2,1H3
SMILES=CC12CCC3c4ccc(O)cc4CCC3C1CCC2O
IONMODE=positive
INSTRUMENTTYPE=LC-ESI-Orbitrap
INSTRUMENT=Orbitrap
COMMENT=DB#=CCMSLIB00010125780; origin=GNPS
NUM_PEAKS=52
COMPOUND_NAME=
PRECURSOR_MZ=255.174
COLLISION_ENERGY=205060
PARENT_MASS=254.16672354800926
55.054821 0.007453598810406459
56.965279 0.0014139884934162292
65.039177 0.001644907156200425
66.825363 0.0011835875854813256
67.054588 0.07015733534360283
69.070297 0.017449891685685528
71.491913 0.0011530400493731025
73.569702 0.0012643573419708648
73.939713 0.0013295944529816467
79.054581 0.006397896672700237
81.070107 0.032441483346933024
84.642807 0.0013244169044887275
84.959686 0.002342840693045931
91.054131 0.012565392437465569
93.070099 0.00881425855434562
95.07856 0.002418432901042551
95.085571 0.07192650366363332
98.984543 0.0014947582499057687
103.054443 0.0016247147170780402
104.270203 0.001397420338238888
105.069946 0.023994830735584668
107.048897 0.02128852613833581
107.085564 0.0021699105733824302
109.101173 0.0698130283688237
111.116798 0.0021367742630277477
115.054123 0.006888728269828975
117.069748 0.006999527807577446
118.635162 0.001593649426120525
119.085793 0.0014383229713329495
121.064697 0.008866551794124104
123.116737 0.005531175054985565
129.069748 0.0032095623107606026
131.049088 0.015052686733463945
131.085541 0.049364300596039384
133.064758 0.3678969212225642
135.018753 0.0014528201071131231
135.116562 0.008589552949752928
136.185333 0.0016904695829381138
141.069824 0.025788851288381168
144.056885 0.04597248857832802
145.064697 0.06833432051924598
147.079926 0.01959857431024699
157.064667 0.00798533304062926
159.080414 1.0
161.095734 0.006385988311166523
169.076096 0.014742033823888794
173.096069 0.022934986559084113
185.095901 0.006597750044526917
199.111267 0.009842001930190079
213.129059 0.0013860297315544657
255.173996 0.41431882101007755
260.917603 0.0013104375235578457
END IONS

BEGIN IONS
CHARGE=1+
PRECURSORTYPE=M+H-H2O
FORMULA=C8H8O4
ONTOLOGY=
INCHIKEY=MRIXVKKOHPQOFK-UHFFFAOYSA-N
INCHI=InChI=1S/C8H8O4/c1-12-5-2-3-6(8(10)11)7(9)4-5/h2-4,9H,1H3,(H,10,11)
SMILES=COc1ccc(C(=O)O)c(O)c1
IONMODE=positive
INSTRUMENTTYPE=LC-ESI-Orbitrap
INSTRUMENT=Orbitrap
COMMENT=DB#=CCMSLIB00010118659; origin=GNPS
NUM_PEAKS=43
COMPOUND_NAME=4-Methoxysalicylic acid
PRECURSOR_MZ=151.039
COLLISION_ENERGY=205060
PARENT_MASS=150.03172354800924
55.01857 0.0022679647368063502
64.474907 0.0009884660205258446
65.039062 0.02910125968115841
67.054649 0.019387440492054285
68.952538 0.011929124695048787
68.982643 0.0043469994086890945
68.997704 0.004158873301488568
72.937897 0.0011665426561878816
79.018311 0.001064038046495287
80.025948 0.004087321064134521
80.290573 0.0009337968953564608
80.444527 0.0008546070596331621
81.069962 0.0014250150641578361
82.014137 0.006526930774818276
82.392082 0.0009920838302797008
86.992844 0.008106305721807313
89.465523 0.001587816503081369
92.371048 0.0009892699782489238
95.049294 0.23246357167062012
98.471008 0.0023318793757911445
100.024353 0.017679432309372578
100.622581 0.001033889631879818
102.261772 0.0011560912057878524
105.003418 0.012167900138803301
107.476097 0.00834387522897721
108.020607 0.03437160453480393
110.008713 0.0017039883940663096
110.03643 0.00653175452115675
111.043877 0.0021401354588367616
116.481171 0.009138185459379434
118.035294 0.00795355375442227
118.983963 0.001060018257879891
121.038986 0.0011713664025263567
122.018517 0.0012573898788958283
123.044113 0.031332242362703114
127.990257 0.0009707789506181028
128.019287 0.026650796541213082
136.015747 0.004578539232935897
141.054413 0.004307605480258215
146.030228 0.006636269025157043
151.039078 1.0
154.907791 0.0011275507066185418
169.049591 0.0015013910478503577
END IONS

BEGIN IONS
CHARGE=1+
PRECURSORTYPE=M+H-H2O
FORMULA=C18H21N3O3S
ONTOLOGY=
INCHIKEY=KIJZQEXKCZHTNA-UHFFFAOYSA-N
INCHI=InChI=1S/C18H21N3O3S/c1-9-4-5-12-10(7-9)8-11-14(19)15(25-16(11)20-12)17(22)21-6-2-3-13(21)18(23)24/h8-9,13H,2-7,19H2,1H3,(H,23,24)/t9?,13-/m0/s1
SMILES=CC1CCc2nc3sc(C(=O)N4CCCC4C(=O)O)c(N)c3cc2C1
IONMODE=positive
INSTRUMENTTYPE=LC-ESI-Orbitrap
INSTRUMENT=Orbitrap
COMMENT=DB#=CCMSLIB00010115964; origin=GNPS
NUM_PEAKS=39
COMPOUND_NAME="(2S)-1-[(3-amino-6-methyl(5,6,7,8-tetrahydrothiopheno[2,3-b]quinolin-2-yl))car bonyl]pyrrolidine-2-carboxylic acid "
PRECURSOR_MZ=342.127
COLLISION_ENERGY=205060
PARENT_MASS=341.11972354800923
66.739777 0.001788866467509648
68.049744 0.007854461193567766
70.065407 0.24047951374752377
87.377678 0.0021221084240758818
92.374428 0.0024368779883712595
94.06456 0.0024738227729129707
110.059837 0.018962280113878602
126.037247 0.0030302112281111386
179.076263 0.0042819005283843085
204.083008 0.004677209722980616
205.079071 0.027607359696638984
206.062698 0.0314533117674311
215.409271 0.0018731005762647492
217.078751 0.0975962984281472
229.078766 0.012755556310871151
245.07373 0.32187330746705817
248.073395 0.013957739599858427
253.118927 0.0028750431330359523
257.073608 0.008904431970243192
257.106812 0.002196736888850138
263.084961 0.010007603236658684
269.110809 0.0031602568696979614
270.106018 0.011235647874825158
271.124664 0.004726715734266509
273.068451 0.4991934953534545
280.144287 0.004936562110463428
281.110199 0.00438904040355527
285.105225 0.0036944784541711032
286.101166 0.0041540715738699885
286.13562 0.0023629884192878374
298.135864 0.03982352215320115
312.114655 0.002502639704855505
313.099213 0.010987378922704861
314.091522 0.004292245068055988
314.130829 0.0628955400994997
324.114716 0.001983196034199048
337.089813 0.002066691247263315
342.12616 1.0
344.16629 0.001869406097810578
END IONS

BEGIN IONS
CHARGE=1+
PRECURSORTYPE=M+H-H2O
FORMULA=C17H26O4
ONTOLOGY=
INCHIKEY=NLDDIKRKFXEWBK-UHFFFAOYSA-N
INCHI=InChI=1S/C17H26O4/c1-3-4-5-6-14(18)12-15(19)9-7-13-8-10-16(20)17(11-13)21-2/h8,10-11,14,18,20H,3-7,9,12H2,1-2H3/t14-/m0/s1
SMILES=CCCCCC(O)CC(=O)CCc1ccc(O)c(OC)c1
IONMODE=positive
INSTRUMENTTYPE=LC-ESI-Orbitrap
INSTRUMENT=Orbitrap
COMMENT=DB#=CCMSLIB00010121908; origin=GNPS
NUM_PEAKS=52
COMPOUND_NAME=6-Gingerol
PRECURSOR_MZ=277.18
COLLISION_ENERGY=205060
PARENT_MASS=276.17272354800923
52.730061 0.003045223201762955
53.039162 0.003010295910559939
55.054722 0.08317170365503188
56.597511 0.0024558251627120604
59.969021 0.0029699112301064517
67.054466 0.0036881036554684676
68.616173 0.002641376397228083
71.085876 0.0035385711900055555
73.948448 0.0030463146796130495
78.559937 0.0027407008815866596
79.0541 0.006553233011965871
81.07003 0.004237117014065875
81.21936 0.002619546840226198
82.017357 0.002567155903421674
83.085793 0.060137155106642845
84.212402 0.0029251606382525875
84.959648 0.003500369465252257
91.054283 0.019733919529704023
94.041473 0.00465187859710169
103.054031 0.06637931693133185
115.054207 0.08585237325486335
116.06144 0.004834155398067429
117.069847 0.43248063445424473
122.036171 0.03047515305248153
123.116699 0.011260776979422368
129.069824 0.016087292032539138
131.049179 0.16270223720214932
137.059692 0.5003225317047029
141.127487 0.02965654466491084
143.049042 0.04500490619293617
143.085159 0.003422874537895565
144.057022 0.007020385531806211
145.064758 0.7719411606120571
146.072617 0.0028192872867934455
151.075226 0.004553645590593207
155.060364 0.005317680085659182
157.064682 0.017558604174466187
160.051346 0.003331190398487648
161.059799 0.006124282216878832
162.067459 0.17619726934071464
163.075378 0.08901547606443648
171.080551 0.006233430001888257
175.075684 0.02957904973755415
176.083206 0.0040995908049539995
177.090942 1.0
179.069839 0.0058350405866038554
189.089859 0.02011047938798654
203.107071 0.0031958471450759616
217.068481 0.0026239127516265747
259.168762 0.045644512213091404
277.142212 0.004877814512071199
277.178131 0.032010862387564135
END IONS

