BEGIN IONS
CHARGE=1+
PRECURSORTYPE=M+H]
FORMULA=C12H17N4OS+
ONTOLOGY=
INCHIKEY=JZRWCGZRTZMZEH-UHFFFAOYSA-N
INCHI=InChI=1S/C12H17N4OS/c1-8-11(3-4-17)18-7-16(8)6-10-5-14-9(2)15-12(10)13/h5,7,17H,3-4,6H2,1-2H3,(H2,13,14,15)/q+1
SMILES=Cc1ncc(C[n+]2csc(CCO)c2C)c(=N)[nH]1
IONMODE=positive
INSTRUMENTTYPE=LC-ESI-Orbitrap
INSTRUMENT=Orbitrap
COMMENT=DB#=CCMSLIB00010103212; origin=GNPS
NUM_PEAKS=34
COMPOUND_NAME=thiamine
PRECURSOR_MZ=133.06
COLLISION_ENERGY=102040
PARENT_MASS=132.05272354800925
54.034698 0.019245444885529893
55.0424 0.017863500664694814
59.755199 0.00446333350636865
63.342899 0.00420547137695326
65.039398 0.00560453878459748
66.754402 0.006046756155671985
68.226402 0.0043504277462935795
70.029404 0.005965245150717825
77.490601 0.004453167765291431
81.045197 0.2884580000275998
82.053101 0.06310656276881041
86.019096 0.006112110235725161
92.394798 0.006239943418256337
97.010803 0.006395375936437696
98.019203 0.006671040465884366
99.013802 0.007734264672735552
99.026802 0.006435269394713721
100.022003 0.00932544976149186
104.301003 0.007184304372610894
108.056 0.006155924893970827
112.022003 0.5149303335433983
113.029999 0.376857810509078
113.039001 0.009735398204519005
114.038002 0.005460169090311096
115.957001 0.004749670042388669
117.681999 0.0045778497029573175
118.055 0.0053728272715772825
122.070999 0.0358760401668867
123.079002 1.0
124.054001 0.07276292244920489
124.083 0.00788179684235463
125.029999 0.05160481248246264
126.037003 0.042336459775613754
133.059006 0.37743855597926335
END IONS

