BEGIN IONS
CHARGE=1+
PRECURSORTYPE=M+K
FORMULA=C9H13N3O4
ONTOLOGY=
INCHIKEY=CKTSBUTUHBMZGZ-SHYZEUOFSA-N
INCHI=InChI=1S/C9H13N3O4/c10-7-1-2-12(9(15)11-7)8-3-5(14)6(4-13)16-8/h1-2,5-6,8,13-14H,3-4H2,(H2,10,11,15)/t5-,6+,8+/m0/s1
SMILES=N=c1ccn([C@H]2C[C@H](O)[C@@H](CO)O2)c(O)n1
IONMODE=positive
INSTRUMENTTYPE=LC-ESI-Orbitrap
INSTRUMENT=Orbitrap
COMMENT=DB#=CCMSLIB00010103330; origin=GNPS
NUM_PEAKS=22
COMPOUND_NAME=2'-deoxycytidine
PRECURSOR_MZ=266.054
COLLISION_ENERGY=102040
PARENT_MASS=265.0467235480092
55.181702 0.011445933207066277
60.1856 0.011778377965229795
65.109398 0.013335671781651527
82.415298 0.013641343504846084
84.392601 0.012469105719429928
86.062698 0.013405469064571568
115.183998 0.012112342663065717
136.235001 0.015213484912256088
145.585007 0.012278769480785195
150.005997 0.4464908189704559
173.246994 0.013102194989068547
175.503998 0.012688728952568014
205.173004 0.013007202413103713
223.977005 0.02632527716203103
224.994003 0.07698256584593081
241.987 0.08610769883553716
242.992004 0.10028701915634901
256.003998 0.013623396817602563
257.003998 0.02027772951960062
266.006989 0.12460687687793015
266.053986 1.0
266.259003 0.015866448978756737
END IONS

BEGIN IONS
CHARGE=1+
PRECURSORTYPE=M+K
FORMULA=C9H13N3O4
ONTOLOGY=
INCHIKEY=CKTSBUTUHBMZGZ-SHYZEUOFSA-N
INCHI=InChI=1S/C9H13N3O4/c10-7-1-2-12(9(15)11-7)8-3-5(14)6(4-13)16-8/h1-2,5-6,8,13-14H,3-4H2,(H2,10,11,15)/t5-,6+,8+/m0/s1
SMILES=N=c1ccn([C@H]2C[C@H](O)[C@@H](CO)O2)c(O)n1
IONMODE=positive
INSTRUMENTTYPE=LC-ESI-Orbitrap
INSTRUMENT=Orbitrap
COMMENT=DB#=CCMSLIB00010126946; origin=GNPS
NUM_PEAKS=22
COMPOUND_NAME=2'-deoxycytidine
PRECURSOR_MZ=266.054
COLLISION_ENERGY=102040
PARENT_MASS=265.0467235480092
55.181702 0.011445933207066277
60.1856 0.011778377965229795
65.109398 0.013335671781651527
82.415298 0.013641343504846084
84.392601 0.012469105719429928
86.062698 0.013405469064571568
115.183998 0.012112342663065717
136.235001 0.015213484912256088
145.585007 0.012278769480785195
150.005997 0.4464908189704559
173.246994 0.013102194989068547
175.503998 0.012688728952568014
205.173004 0.013007202413103713
223.977005 0.02632527716203103
224.994003 0.07698256584593081
241.987 0.08610769883553716
242.992004 0.10028701915634901
256.003998 0.013623396817602563
257.003998 0.02027772951960062
266.006989 0.12460687687793015
266.053986 1.0
266.259003 0.015866448978756737
END IONS

BEGIN IONS
CHARGE=1+
PRECURSORTYPE=M+K
FORMULA=C13H16N2O2
ONTOLOGY=
INCHIKEY=DRLFMBDRBRZALE-UHFFFAOYSA-N
INCHI=InChI=1S/C13H16N2O2/c1-9(16)14-6-5-10-8-15-13-4-3-11(17-2)7-12(10)13/h3-4,7-8,15H,5-6H2,1-2H3,(H,14,16)
SMILES=CC(=O)NCCC1=CNC2=C1C=C(C=C2)OC
IONMODE=positive
INSTRUMENTTYPE=LC-ESI-Orbitrap
INSTRUMENT=Orbitrap
COMMENT=DB#=CCMSLIB00010102241; origin=GNPS
NUM_PEAKS=26
COMPOUND_NAME=tryptamine
PRECURSOR_MZ=271.084
COLLISION_ENERGY=102040
PARENT_MASS=270.0767235480092
52.013783 0.0054893003295815295
52.730732 0.00449650158826824
57.070103 0.020915060212475717
57.41861 0.005262869646268448
58.203312 0.004375167596867534
69.069946 0.010810409662686015
71.085503 0.01823452079432209
73.064781 0.008388147745507436
83.085541 0.008067436779228008
92.426399 0.005704669721004693
101.298225 0.00612125406278691
103.075516 0.014601968290141182
117.024361 0.005437604079965224
117.091171 0.0071701684966746105
139.580124 0.004896860164783876
150.764557 0.006142365588968166
165.81015 0.005866808589294805
208.394211 0.006060170342346921
227.079742 0.006285557289603542
243.073624 0.008776404369344282
247.869354 0.008100731756615716
247.894745 0.007983288995929266
256.077698 0.013489314471403446
271.104462 1.0
271.261993 0.13451061537218484
289.085236 0.023474627776000297
END IONS

BEGIN IONS
CHARGE=1+
PRECURSORTYPE=M+K
FORMULA=C10H16N2O3S
ONTOLOGY=
INCHIKEY=YBJHBAHKTGYVGT-ZKWXMUAHSA-N
INCHI=InChI=1S/C10H16N2O3S/c13-8(14)4-2-1-3-7-9-6(5-16-7)11-10(15)12-9/h6-7,9H,1-5H2,(H,13,14)(H2,11,12,15)/t6-,7-,9-/m0/s1
SMILES=O=C(O)CCCC[C@@H]1SC[C@@H]2N=C(O)N[C@H]12
IONMODE=positive
INSTRUMENTTYPE=LC-ESI-Orbitrap
INSTRUMENT=Orbitrap
COMMENT=DB#=CCMSLIB00010102891; origin=GNPS
NUM_PEAKS=16
COMPOUND_NAME=biotin
PRECURSOR_MZ=283.051
COLLISION_ENERGY=102040
PARENT_MASS=282.0437235480092
53.2943 0.017542366684388914
57.308701 0.01740612770818103
67.491203 0.016227237946102212
74.5541 0.018888815129261646
82.405701 0.015993387145278128
89.060699 0.08735545291420217
95.0429 0.015872017553332892
104.299004 0.021558864906625907
104.975998 0.01634204443576793
114.424004 0.01648484751943909
118.670998 0.02266930358210939
133.087006 0.026819465026251082
265.062012 0.07143401035090052
283.046997 0.39354689939855125
283.072998 1.0
283.171997 0.021310477337675285
END IONS

BEGIN IONS
CHARGE=1+
PRECURSORTYPE=M+K
FORMULA=C10H16N2O3S
ONTOLOGY=
INCHIKEY=YBJHBAHKTGYVGT-ZKWXMUAHSA-N
INCHI=InChI=1S/C10H16N2O3S/c13-8(14)4-2-1-3-7-9-6(5-16-7)11-10(15)12-9/h6-7,9H,1-5H2,(H,13,14)(H2,11,12,15)/t6-,7-,9-/m0/s1
SMILES=O=C(O)CCCC[C@@H]1SC[C@@H]2N=C(O)N[C@H]12
IONMODE=positive
INSTRUMENTTYPE=LC-ESI-Orbitrap
INSTRUMENT=Orbitrap
COMMENT=DB#=CCMSLIB00010102959; origin=GNPS
NUM_PEAKS=14
COMPOUND_NAME=biotin
PRECURSOR_MZ=283.051
COLLISION_ENERGY=102040
PARENT_MASS=282.0437235480092
50.121101 0.022845172840178667
66.763496 0.03155182224824781
80.357399 0.025782130388204958
89.060204 0.09676253944692595
94.685501 0.02170289091949014
95.189003 0.027749210335185386
98.983704 0.025602099175654574
118.691002 0.022337127256055488
133.085999 0.032068035552166176
151.018005 0.025852126765806005
224.800003 0.027911175028143952
265.062988 0.032299451383592984
283.049988 1.0
283.075012 0.694764302919708
END IONS

BEGIN IONS
CHARGE=1+
PRECURSORTYPE=M+K
FORMULA=C10H16N2O3S
ONTOLOGY=
INCHIKEY=YBJHBAHKTGYVGT-ZKWXMUAHSA-N
INCHI=InChI=1S/C10H16N2O3S/c13-8(14)4-2-1-3-7-9-6(5-16-7)11-10(15)12-9/h6-7,9H,1-5H2,(H,13,14)(H2,11,12,15)/t6-,7-,9-/m0/s1
SMILES=O=C(O)CCCC[C@@H]1SC[C@@H]2N=C(O)N[C@H]12
IONMODE=positive
INSTRUMENTTYPE=LC-ESI-Orbitrap
INSTRUMENT=Orbitrap
COMMENT=DB#=CCMSLIB00010126506; origin=GNPS
NUM_PEAKS=16
COMPOUND_NAME=biotin
PRECURSOR_MZ=283.051
COLLISION_ENERGY=102040
PARENT_MASS=282.0437235480092
53.2943 0.017542366684388914
57.308701 0.01740612770818103
67.491203 0.016227237946102212
74.5541 0.018888815129261646
82.405701 0.015993387145278128
89.060699 0.08735545291420217
95.0429 0.015872017553332892
104.299004 0.021558864906625907
104.975998 0.01634204443576793
114.424004 0.01648484751943909
118.670998 0.02266930358210939
133.087006 0.026819465026251082
265.062012 0.07143401035090052
283.046997 0.39354689939855125
283.072998 1.0
283.171997 0.021310477337675285
END IONS

BEGIN IONS
CHARGE=1+
PRECURSORTYPE=M+K
FORMULA=C10H16N2O3S
ONTOLOGY=
INCHIKEY=YBJHBAHKTGYVGT-ZKWXMUAHSA-N
INCHI=InChI=1S/C10H16N2O3S/c13-8(14)4-2-1-3-7-9-6(5-16-7)11-10(15)12-9/h6-7,9H,1-5H2,(H,13,14)(H2,11,12,15)/t6-,7-,9-/m0/s1
SMILES=O=C(O)CCCC[C@@H]1SC[C@@H]2N=C(O)N[C@H]12
IONMODE=positive
INSTRUMENTTYPE=LC-ESI-Orbitrap
INSTRUMENT=Orbitrap
COMMENT=DB#=CCMSLIB00010126574; origin=GNPS
NUM_PEAKS=14
COMPOUND_NAME=biotin
PRECURSOR_MZ=283.051
COLLISION_ENERGY=102040
PARENT_MASS=282.0437235480092
50.121101 0.022845172840178667
66.763496 0.03155182224824781
80.357399 0.025782130388204958
89.060204 0.09676253944692595
94.685501 0.02170289091949014
95.189003 0.027749210335185386
98.983704 0.025602099175654574
118.691002 0.022337127256055488
133.085999 0.032068035552166176
151.018005 0.025852126765806005
224.800003 0.027911175028143952
265.062988 0.032299451383592984
283.049988 1.0
283.075012 0.694764302919708
END IONS

BEGIN IONS
CHARGE=1+
PRECURSORTYPE=M+K
FORMULA=C11H19N3O6
ONTOLOGY=
INCHIKEY=JCMUOFQHZLPHQP-BQBZGAKWSA-N
INCHI=InChI=1S/C11H19N3O6/c1-2-7(10(18)13-5-9(16)17)14-8(15)4-3-6(12)11(19)20/h6-7H,2-5,12H2,1H3,(H,13,18)(H,14,15)(H,16,17)(H,19,20)/t6-,7-/m0/s1
SMILES=CC[C@H](N=C(O)CC[C@H](N)C(=O)O)C(O)=NCC(=O)O
IONMODE=positive
INSTRUMENTTYPE=LC-ESI-Orbitrap
INSTRUMENT=Orbitrap
COMMENT=DB#=CCMSLIB00010103235; origin=GNPS
NUM_PEAKS=12
COMPOUND_NAME=Ophthalmic acid
PRECURSOR_MZ=328.091
COLLISION_ENERGY=102040
PARENT_MASS=327.08372354800923
82.406502 0.01785183092426822
83.636703 0.011758910055467076
98.983902 0.013508704755889944
118.378998 0.012668845719149871
162.962997 0.016463067768685814
199.048004 0.04854648842879895
301.32901 0.017047888406831788
310.079987 0.022594322560272394
317.235992 0.012368938491954529
328.014008 0.02534587281014883
328.045013 0.3321083066725246
328.088989 1.0
END IONS

BEGIN IONS
CHARGE=1+
PRECURSORTYPE=M+K
FORMULA=C11H19N3O6
ONTOLOGY=
INCHIKEY=JCMUOFQHZLPHQP-BQBZGAKWSA-N
INCHI=InChI=1S/C11H19N3O6/c1-2-7(10(18)13-5-9(16)17)14-8(15)4-3-6(12)11(19)20/h6-7H,2-5,12H2,1H3,(H,13,18)(H,14,15)(H,16,17)(H,19,20)/t6-,7-/m0/s1
SMILES=CC[C@H](N=C(O)CC[C@H](N)C(=O)O)C(O)=NCC(=O)O
IONMODE=positive
INSTRUMENTTYPE=LC-ESI-Orbitrap
INSTRUMENT=Orbitrap
COMMENT=DB#=CCMSLIB00010126850; origin=GNPS
NUM_PEAKS=12
COMPOUND_NAME=Ophthalmic acid
PRECURSOR_MZ=328.091
COLLISION_ENERGY=102040
PARENT_MASS=327.08372354800923
82.406502 0.01785183092426822
83.636703 0.011758910055467076
98.983902 0.013508704755889944
118.378998 0.012668845719149871
162.962997 0.016463067768685814
199.048004 0.04854648842879895
301.32901 0.017047888406831788
310.079987 0.022594322560272394
317.235992 0.012368938491954529
328.014008 0.02534587281014883
328.045013 0.3321083066725246
328.088989 1.0
END IONS

