BEGIN IONS
CHARGE=1+
PRECURSORTYPE=M-H2O+H
FORMULA=C10H9NO3
ONTOLOGY=
INCHIKEY=ILGMGHZPXRDCCS-UHFFFAOYSA-N
INCHI=InChI=1S/C10H9NO3/c12-9(13)5-7-6-3-1-2-4-8(6)11-10(7)14/h1-4,7H,5H2,(H,11,14)(H,12,13)
SMILES=C1=CC=C2C(=C1)C(C(=O)N2)CC(=O)O
IONMODE=positive
INSTRUMENTTYPE=LC-ESI-Orbitrap
INSTRUMENT=Orbitrap
COMMENT=DB#=CCMSLIB00010102114; origin=GNPS
NUM_PEAKS=27
COMPOUND_NAME=2-oxindole-3-acetic acid
PRECURSOR_MZ=174.054
COLLISION_ENERGY=205060
PARENT_MASS=173.04672354800925
70.154106 0.0005543137190210328
72.080757 0.000840567757632998
73.81385 0.0005080714745823785
77.038498 0.0011137694836166898
88.752693 0.0005004483036667051
90.410576 0.00046378504240659335
91.054276 0.006043115626478007
92.422577 0.000609276116514168
102.082947 0.0005418256351283301
102.213295 0.0005389800998831806
104.049301 0.0034382445310073063
117.057793 0.0011869450663707125
118.057602 0.00041082856545277924
118.065033 0.02728025746654368
128.049362 0.1226624019252916
130.03978 0.0008654235875383665
132.044281 0.08003052390936327
139.212555 0.0006053248972637431
145.601944 0.0008344942589663218
146.059937 1.0
146.519867 0.0005846443996193778
147.06398 0.001218028699040223
174.055908 0.0016635047387965987
174.128128 0.0009783999153849022
229.390244 0.0007354513619870582
283.159668 0.0006082373946393963
336.954987 0.0006169031369795339
END IONS

BEGIN IONS
CHARGE=1+
PRECURSORTYPE=M-H2O+H
FORMULA=C10H9NO3
ONTOLOGY=
INCHIKEY=ILGMGHZPXRDCCS-UHFFFAOYSA-N
INCHI=InChI=1S/C10H9NO3/c12-9(13)5-7-6-3-1-2-4-8(6)11-10(7)14/h1-4,7H,5H2,(H,11,14)(H,12,13)
SMILES=C1=CC=C2C(=C1)C(C(=O)N2)CC(=O)O
IONMODE=positive
INSTRUMENTTYPE=LC-ESI-Orbitrap
INSTRUMENT=Orbitrap
COMMENT=DB#=CCMSLIB00010102121; origin=GNPS
NUM_PEAKS=19
COMPOUND_NAME="(2-Oxo-2,3-dihydro-1H-indol-3-yl)acetic acid "
PRECURSOR_MZ=174.054
COLLISION_ENERGY=205060
PARENT_MASS=173.04672354800925
72.081009 0.0023138230061633593
77.038795 0.0007671029915934193
91.054245 0.005372745457707929
92.980484 0.0007534361291004527
104.04969 0.0029068979802321583
117.057571 0.001366928082674153
118.065247 0.02706916501242655
128.049576 0.13188760700730076
130.039474 0.0020388435374881094
132.035522 0.0013947620976776513
132.044495 0.0784105732720507
146.060211 1.0
146.525482 0.0007928755926792007
148.064392 0.0010869374768777882
174.054703 0.0011065856867709396
174.127823 0.0008058396747502429
174.478363 0.000680145683518839
175.855072 0.0006954368322886277
328.317047 0.0007108784557187055
END IONS

