BEGIN IONS
CHARGE=1+
PRECURSORTYPE=M+H-H2O
FORMULA=C11H12O5
ONTOLOGY=
INCHIKEY=PCMORTLOPMLEFB-UHFFFAOYSA-N
INCHI=InChI=1S/C11H12O5/c1-15-8-5-7(3-4-10(12)13)6-9(16-2)11(8)14/h3-6,14H,1-2H3,(H,12,13)/b4-3+
SMILES=COc1cc(C=CC(=O)O)cc(OC)c1O
IONMODE=positive
INSTRUMENTTYPE=LC-ESI-Orbitrap
INSTRUMENT=Orbitrap
COMMENT=DB#=CCMSLIB00010113342; origin=GNPS
NUM_PEAKS=42
COMPOUND_NAME=SINAPIC ACID
PRECURSOR_MZ=207.065
COLLISION_ENERGY=102040
PARENT_MASS=206.05772354800925
53.03904 0.001906216927223814
54.611881 0.00118914335740058
56.767059 0.0010920168580102454
65.039101 0.001765339752432428
77.039017 0.016397753140314105
82.848343 0.0013488333226144178
87.905991 0.0013763962481170803
89.038757 0.0022584098642022786
91.054459 0.15395075161472804
92.367104 0.0015443988416571181
103.054367 0.006751604227890268
104.275703 0.0015474613889351918
105.033653 0.016042060149303556
106.745872 0.001225893924737463
115.964081 0.0026372907131753847
118.041611 0.007743869545986116
119.049301 0.4105904634902801
129.033875 0.00431556662155972
131.049622 0.00270160420601493
132.020538 0.010417473319744373
133.028809 0.007188673475146772
136.052261 0.0057422761463880095
145.028778 0.007638867925023592
146.036331 0.004843199766896402
147.044205 0.45879277011338865
149.023666 0.011838057750016517
157.040024 0.028933634162977392
161.012222 0.0016839634961864725
163.962311 0.0013094577147534715
164.046982 0.022028027557675422
174.031494 0.007837058484590357
174.373123 0.0012582694245342413
175.039169 1.0
176.04689 0.0015006481662560667
177.018936 0.0026666036656940893
179.070465 0.03958342356910135
183.967758 0.0022295344184375845
184.764053 0.0012158312693952213
192.021484 0.0017649022456784178
192.04184 0.14269676538131557
207.065399 0.6227926143609842
211.340164 0.0015282110917587291
END IONS

BEGIN IONS
CHARGE=1+
PRECURSORTYPE=M+H-H2O
FORMULA=C27H44O6
ONTOLOGY=
INCHIKEY=UPEZCKBFRMILAV-UHFFFAOYSA-N
INCHI=InChI=1S/C27H44O6/c1-15(20(28)8-9-24(2,3)32)16-7-11-27(33)18-12-21(29)19-13-22(30)23(31)14-25(19,4)17(18)6-10-26(16,27)5/h12,15-17,19-20,22-23,28,30-33H,6-11,13-14H2,1-5H3/t15-,16+,17-,19-,20+,22+,23-,25+,26+,27+/m0/s1
SMILES=CC(C(O)CCC(C)(C)O)C1CCC2(O)C3=CC(=O)C4CC(O)C(O)CC4(C)C3CCC12C
IONMODE=positive
INSTRUMENTTYPE=LC-ESI-Orbitrap
INSTRUMENT=Orbitrap
COMMENT=DB#=CCMSLIB00010112781; origin=GNPS
NUM_PEAKS=100
COMPOUND_NAME=ECDYSONE
PRECURSOR_MZ=447.31
COLLISION_ENERGY=102040
PARENT_MASS=446.3027235480092
59.049122 0.0021861817974053
60.85194 0.0022666224618902954
63.514462 0.0021027340052760055
67.054657 0.04475508073010052
69.070259 0.032123641060222995
71.085472 0.003068021979095952
79.053963 0.0090867879591602
81.070152 0.16882991911578418
90.869118 0.00221324594620399
92.379478 0.0023981842963283722
93.069366 0.014818373249193903
95.085602 0.019287716710533143
97.064423 0.003988203038251415
99.080467 0.35159186060760517
99.091263 0.009722043674018343
105.069542 0.005317353457031529
107.084747 0.014842430270348293
109.063606 0.002959013601990117
109.101173 0.40627948394682495
109.113358 0.010198673405639718
111.079872 0.0028560194801728798
119.085037 0.00456331620022358
121.100456 0.01043623648953933
123.07975 0.0039370818682983345
123.116241 0.003098845037450016
127.110901 0.015254406757617243
131.084946 0.004233283941261776
133.100464 0.010246035666037425
135.080856 0.0025943993751188755
135.116226 0.004025040351894077
137.059219 0.003953621070341978
139.111053 0.002558313843387289
143.084641 0.0035536730936502245
145.100189 0.011576689648639688
147.079315 0.004306206786636024
147.116379 0.009455161095586815
149.132217 0.005351183643029891
157.100876 0.004894852023007533
159.116745 0.004708410109061002
161.132004 0.01042345619705106
165.126831 0.008530469344964903
173.095596 0.020238720828042667
173.132004 0.004851248672165199
175.111023 0.005102343830464158
175.146881 0.0033845221636584115
179.143234 0.016425682975071663
183.116241 0.004112247053578745
185.132309 0.0037671791563954463
187.110825 0.0030950861278946423
187.146164 0.0030251704101646928
189.090591 0.004909887661229028
191.106506 0.005048967314777852
197.131546 0.0036701992898668066
199.109772 0.004790354337368147
199.147583 0.005621073349105718
201.126984 0.002877821155594047
204.04715 0.0027530253583556426
207.118073 0.0031958249039786553
211.111435 0.0037746969755061937
211.14798 0.003248449637753886
213.126526 0.005555668322842217
215.141861 0.004957249921626735
217.158752 0.003707788385420543
225.127563 0.0054015530310718984
227.142303 0.012624673632677854
231.137939 0.011940552093599855
231.405151 0.002551547806187616
237.162567 0.004803134629856418
238.137619 0.002344807780642067
239.178665 0.005372233536539984
249.148087 0.010621174839663712
255.174332 0.002245572568380203
257.156738 0.0027379897201341478
263.162689 0.0030281775378089917
265.160034 0.0029883330965220314
265.194 0.003019156154876095
267.173248 0.01109329387981864
267.205353 0.0023049633393551062
275.080475 0.0024199859717495393
283.16922 0.018993769983302922
285.184631 0.04896205230447468
301.179291 0.1005583484253552
302.187286 0.03658772204818471
303.19516 0.09454559670057955
311.197906 0.0032755137865525764
313.214874 0.014870246201058058
315.192444 0.0025665834444091105
315.230652 0.0029334530170135762
329.210602 0.0054917668604008655
331.226044 0.23500777718387006
337.214905 0.004237042850817149
343.225983 0.00547823478600152
347.222321 0.004762538406658382
355.225159 0.015422054123786905
373.237762 0.0047775740448798764
393.2789 0.017869104244335136
411.288269 0.1122831391104766
428.851929 0.0039491103788755295
429.299255 1.0
447.309845 0.8334991012447253
END IONS

BEGIN IONS
CHARGE=1+
PRECURSORTYPE=M+H-H2O
FORMULA=C20H32O4
ONTOLOGY=
INCHIKEY=BGKHCLZFGPIKKU-UHFFFAOYSA-N
INCHI=InChI=1S/C20H32O4/c1-2-3-6-9-17(21)14-12-16-13-15-19(22)18(16)10-7-4-5-8-11-20(23)24/h12-18,21H,2-11H2,1H3,(H,23,24)/b14-12+/t16-,17-,18+/m0/s1
SMILES=CCCCCC(O)C=CC1C=CC(=O)C1CCCCCCC(=O)O
IONMODE=positive
INSTRUMENTTYPE=LC-ESI-Orbitrap
INSTRUMENT=Orbitrap
COMMENT=DB#=CCMSLIB00010111779; origin=GNPS
NUM_PEAKS=113
COMPOUND_NAME=prostaglandin A1
PRECURSOR_MZ=319.227
COLLISION_ENERGY=102040
PARENT_MASS=318.2197235480092
55.018421 0.0025648003265528268
55.05463 0.018748602917594004
57.070309 0.007750770217604696
60.091339 0.0013319662173325688
67.054626 0.026277783717065302
69.033623 0.0013212754997910451
69.070221 0.015996715034064513
71.085907 0.001476776845849572
73.959167 0.0017041975644601674
75.376648 0.0015107927652998746
79.054451 0.018803514330420924
81.070137 0.025087226536304706
82.406792 0.0015637604113010602
83.085716 0.01604628108812067
85.065018 0.002033180099715238
89.210564 0.0013465444685255557
91.054291 0.019537286307134596
93.069969 0.030244525866677033
95.049202 0.0022523398093164744
95.085609 0.021643843604521203
97.064697 0.006312868708269756
97.101143 0.0034035357118560056
99.080307 0.001592916913687034
105.069801 0.04748330790238403
107.049088 0.014216710563400814
107.08535 0.015407753685867843
109.064598 0.002610478846957519
109.101051 0.01373125479867435
111.080391 0.008465590467767486
117.069778 0.02754123215379083
118.665367 0.0013178739078460147
119.049294 0.001513708415538472
119.085251 0.02553429290622297
121.064873 0.016683350665254195
121.101028 0.00790238403001176
122.269188 0.001190557180760596
123.080566 0.012040177660287872
123.258507 0.0014379015093349402
129.069778 0.021359081764551525
131.074829 0.002512318622258074
131.085434 0.04426831757262399
132.138504 0.0013392553429290622
133.064667 0.04999611246634854
133.10112 0.01714693905319118
135.080032 0.011660171245857347
135.116989 0.011305919741867766
139.112152 0.0013266208585618069
143.085266 0.01845558006861497
144.094772 0.0014068012401232347
145.064667 0.003307319253982292
145.100891 0.02179642930034113
147.08017 0.03835051947168418
147.116562 0.017521600108850944
149.095474 0.002541961066350481
149.132187 0.002521551514680299
155.085464 0.0028714295433119844
157.101151 0.016095361200470393
159.116867 0.014519452246508508
161.096069 0.010468156239977452
161.132172 0.03099676362823516
163.111572 0.00865899526692778
163.147797 0.0019306463996578971
167.084473 0.001837345592022781
169.101181 0.0029030157542301225
171.116669 0.015508829560805886
173.132339 0.055131544419931386
175.111389 0.00763900362512513
175.148376 0.015840727746299552
177.126984 0.008011720913959162
181.101135 0.002413186514145763
183.116745 0.005362366730487011
185.096451 0.006291001331480276
185.132202 0.03158572497643183
187.111023 0.014185610294189108
187.148148 0.02140670405178195
189.126602 0.010078916933124703
189.164246 0.0015341179672086537
191.107056 0.002169243777516449
191.142853 0.020891119901256645
195.116531 0.005851710028864938
197.131912 0.0022226973652240676
199.111603 0.006062608729456814
199.148148 0.019607747854567367
201.12674 0.006433868193171547
201.163116 0.0032533797245682407
203.142868 0.05741935797381746
205.12175 0.003336475756368266
209.132462 0.00760547364738126
213.126511 0.006390619381299019
213.16449 0.0022372756164170545
215.143051 0.005203463792483454
217.121964 0.0030011759789295676
217.156937 0.009956945564810046
219.137466 0.00505865316396645
223.147491 0.001785349829434461
227.141708 0.006287599739535245
231.137817 0.007978190936215292
231.21138 0.00260561942989319
241.195404 0.006540775368586784
245.15387 0.006009155141749196
245.226532 0.0027392533991622363
249.149124 0.002741683107694401
255.179306 0.0021016978803222765
255.209778 0.025679103534739973
259.204742 0.009408317378247306
265.193726 0.02150777992671999
271.203522 0.0014923269804554245
273.220703 0.08046903093504904
283.204987 0.12436171556860039
301.215576 1.0
319.188477 0.013876551368897786
319.225525 0.15539395294140515
319.296082 0.004402631860282041
END IONS

BEGIN IONS
CHARGE=1+
PRECURSORTYPE=M+H-H2O
FORMULA=C9H13NO3
ONTOLOGY=
INCHIKEY=UCTWMZQNUQWSLP-VIFPVBQESA-N
INCHI=InChI=1S/C9H13NO3/c1-10-5-9(13)6-2-3-7(11)8(12)4-6/h2-4,9-13H,5H2,1H3/t9-/m0/s1
SMILES=CNC[C@H](O)c1ccc(O)c(O)c1
IONMODE=positive
INSTRUMENTTYPE=LC-ESI-Orbitrap
INSTRUMENT=Orbitrap
COMMENT=DB#=CCMSLIB00010126654; origin=GNPS
NUM_PEAKS=25
COMPOUND_NAME=epinephrine
PRECURSOR_MZ=166.086
COLLISION_ENERGY=102040
PARENT_MASS=165.07872354800926
56.050201 0.007826690207760013
57.057899 0.041833772262936914
58.065701 0.031822757924569865
58.551498 0.001743990635543763
78.985199 0.0035147904481027392
79.054901 0.002036291474310289
88.112701 0.001520715124429145
89.524696 0.0017052990475063209
91.054604 0.003093141899595264
92.391197 0.0019342164531200169
96.995598 0.03608691792509593
107.049004 0.09093207605482839
108.796997 0.0016656704187421297
109.028 0.009252077106944295
119.049004 0.0022650247082844264
120.081001 0.04687176351064774
123.043999 0.002724598747258745
125.058998 0.003674876458577868
133.052002 0.009520432419636429
135.044006 0.11331485554777428
137.059998 0.01996146625502632
148.076996 0.09388490509585762
151.063004 0.0520205557144689
157.998993 0.0019136968537789042
166.085999 1.0
END IONS

BEGIN IONS
CHARGE=1+
PRECURSORTYPE=M+H-H2O
FORMULA=C7H10O4
ONTOLOGY=
INCHIKEY=GYXGAEAOIFNGAE-UHFFFAOYSA-N
INCHI=InChI=1S/C7H10O4/c1-4(2)5(7(10)11)3-6(8)9/h3H2,1-2H3,(H,8,9)(H,10,11)
SMILES=CC(C)=C(CC(=O)O)C(=O)O
IONMODE=positive
INSTRUMENTTYPE=LC-ESI-Orbitrap
INSTRUMENT=Orbitrap
COMMENT=DB#=CCMSLIB00010111758; origin=GNPS
NUM_PEAKS=37
COMPOUND_NAME=2-(methylethylidene)butanedioic acid
PRECURSOR_MZ=141.055
COLLISION_ENERGY=102040
PARENT_MASS=140.04772354800926
51.940552 0.004725705528556805
55.018398 0.012245341329225784
55.94582 0.010840058011974267
56.965328 0.00443310127238814
59.04953 0.05547639691620558
65.038971 0.12689923648882723
67.054604 1.0
67.935204 0.04299129624664092
68.943161 0.002704876802843448
71.049339 0.019252185724435295
83.930237 0.002790015833902558
85.064613 0.003803855330192649
95.049179 0.8117850033957752
96.971939 0.0025913580947646347
99.935417 0.002861454331228018
102.937637 0.0020873741752767995
102.947929 0.0030307537837938343
108.080566 0.0033243366495149035
112.966377 0.015935677951339617
113.059563 0.20347836979306322
116.971878 0.014782875898608222
117.935822 0.003954561201262798
117.945511 0.004148325892638703
118.636299 0.0034114328996788204
118.943176 0.0037333954424195927
119.950768 0.003299871410704814
126.971947 0.002906470370638582
128.951096 0.010881159613175217
131.950699 0.004846074503502443
135.956421 0.0035073366358143697
136.193466 0.002981823306173656
139.98764 0.010027812083479309
140.951126 0.07622781247492313
141.054398 0.037986686995649104
141.07251 0.002823288558684279
146.974335 0.013989223551608932
159.971466 0.002265481113814248
END IONS

BEGIN IONS
CHARGE=1+
PRECURSORTYPE=M+H-H2O
FORMULA=C24H40O3
ONTOLOGY=
INCHIKEY=SMEROWZSTRWXGI-UHFFFAOYSA-N
INCHI=InChI=1S/C24H40O3/c1-15(4-9-22(26)27)19-7-8-20-18-6-5-16-14-17(25)10-12-23(16,2)21(18)11-13-24(19,20)3/h15-21,25H,4-14H2,1-3H3,(H,26,27)/t15-,16-,17-,18+,19-,20+,21+,23+,24-/m1/s1
SMILES=CC(CCC(=O)O)C1CCC2C3CCC4CC(O)CCC4(C)C3CCC12C
IONMODE=positive
INSTRUMENTTYPE=LC-ESI-Orbitrap
INSTRUMENT=Orbitrap
COMMENT=DB#=CCMSLIB00010112291; origin=GNPS
NUM_PEAKS=112
COMPOUND_NAME=LITHOCHOLIC ACID
PRECURSOR_MZ=359.294
COLLISION_ENERGY=102040
PARENT_MASS=358.2867235480092
55.054699 0.0072849515256435265
57.070309 0.0014796570330264337
63.836929 0.001373485742501758
67.05455 0.0339162502322497
68.870293 0.001246670034375062
69.070213 0.02149715844337721
73.0653 0.0013616889324434606
74.928436 0.0014632257618738052
79.054466 0.01433270290618629
81.070084 0.11502521778807283
83.048553 0.0013393592562616836
83.085693 0.025534616685829462
85.06472 0.0022704646215772925
91.054153 0.0028105899963893335
93.069893 0.05355920292324953
95.08551 0.13919393239500943
97.064751 0.0026825103443278197
97.101089 0.015826263322495718
99.044151 0.0026947284690310566
101.059479 0.007063340022405513
105.069946 0.010224885118029192
107.085388 0.06646407049773691
109.101067 0.08513420767357216
109.10965 0.0028084834231646375
111.080658 0.001671355196473765
111.116386 0.006773054232042411
115.075089 0.006615903869480093
119.085442 0.015147525429498682
121.064003 0.0015512805226660959
121.101082 0.11956825360445211
123.080132 0.0024550004360606574
123.116623 0.03234938106772085
127.074631 0.006923463560285702
129.0634 0.0011965335916272984
131.085327 0.0028598838098472185
133.100967 0.02327974070611492
135.080139 0.010775122044319773
135.116669 0.161644947194529
137.095551 0.0027246418088217386
137.132401 0.017418832680365853
139.075348 0.002506822137388178
141.090515 0.0050806333033216865
145.1008 0.006618010442704789
147.116776 0.029100202525949824
149.09613 0.010903623011026226
149.13237 0.13948000503892316
151.111603 0.008027729244671317
151.148163 0.012139338864632868
153.090744 0.01872027361858301
155.106705 0.005937587291127999
157.100372 0.0015243163853899879
159.116989 0.010624712716076483
161.132355 0.023147026592959075
163.112305 0.014376940943904903
163.147949 0.08881102057995646
165.091888 0.0014109827459013458
165.127014 0.002533786274664286
165.163666 0.002229175786373252
167.106506 0.02585270924275855
169.121796 0.005808665009776606
173.13237 0.007122745387341939
175.110596 0.001771206767324353
175.147644 0.02280618304520327
177.127258 0.030378049844050386
177.163589 0.052560687214743655
179.105698 0.0026306886430002997
181.122116 0.04218286488060154
183.137589 0.0018411449983842584
185.132401 0.001420251668090008
187.147522 0.006782323154231073
189.127975 0.004581375449068747
189.163788 0.032164002623947606
191.142334 0.012644916438559896
191.179153 0.018748501699793935
193.121964 0.006294862110036431
195.137817 0.0918453286528085
199.147903 0.0030263030945981984
201.162064 0.00153358530757865
203.142838 0.0028396607068901375
203.179108 0.02874166376310657
205.158585 0.007838558969093622
205.194534 0.012376539009733633
207.137756 0.009855392174417521
209.153305 0.04339414448480171
213.163589 0.004891463027743991
217.15892 0.0030701198176718743
217.194519 0.022734980870208546
221.153442 0.015998581012275845
223.168777 0.017448746020156534
227.179367 0.0029504664585091444
231.174149 0.005175007783788065
231.210281 0.01750393823864357
235.14447 0.0020311579032518327
235.169357 0.03514648899547213
237.184174 0.006743983521541607
243.210373 0.0021946279854882385
245.189346 0.00573914809336164
245.226013 0.017811076614804237
249.184555 0.05435506628753966
259.208252 0.0034859573722268544
259.238373 0.002063177816267211
263.199768 0.04287297826901193
263.230042 0.0020054577099105422
275.200378 0.0049908932839496396
277.216095 0.016226933549832886
289.21463 0.00969992707043496
299.273224 0.010741838187369577
303.233368 0.008891845581441595
323.272766 0.03314060997091665
341.283264 0.06044559079478059
359.293762 1.0
373.515808 0.0016090006290227648
END IONS

BEGIN IONS
CHARGE=1+
PRECURSORTYPE=M+H-H2O
FORMULA=C28H31N3O5
ONTOLOGY=
INCHIKEY=LNZNVIZOYGIGPF-UHFFFAOYSA-N
INCHI=InChI=1S/C28H31N3O5/c1-18-5-7-22-21(15-27(32)36-25(22)13-18)16-30-9-11-31(12-10-30)17-23-19(2)35-28(29-23)20-6-8-24(33-3)26(14-20)34-4/h5-8,13-15H,9-12,16-17H2,1-4H3
SMILES=COc1ccc(-c2nc(CN3CCN(Cc4cc(=O)oc5cc(C)ccc45)CC3)c(C)o2)cc1OC
IONMODE=positive
INSTRUMENTTYPE=LC-ESI-Orbitrap
INSTRUMENT=Orbitrap
COMMENT=DB#=CCMSLIB00010114686; origin=GNPS
NUM_PEAKS=35
COMPOUND_NAME="4-[(4-{[2-(3,4-dimethoxyphenyl)-5-methyl(1,3-oxazol-4-yl)]methyl}piperazinyl)m ethyl]-7-methylchromen-2-one "
PRECURSOR_MZ=472.223
COLLISION_ENERGY=102040
PARENT_MASS=471.21572354800924
89.729424 0.0012680707892582905
92.376106 0.0015167937425883942
101.01619 0.0014158476067180174
112.147186 0.001563104083271196
119.241753 0.0014252137430358874
126.286926 0.0014876546518216875
152.530624 0.0017316945369928562
158.09668 0.008877015865714582
257.129303 0.002476822715170071
268.508514 0.0014002373795215673
269.128204 0.04177556968223301
270.130768 0.011491208580213413
299.104034 0.0019263020360419333
317.117798 0.001622422946617706
327.148987 0.0015209564698407808
331.096802 0.0020865670352588203
345.113434 0.008616325071533867
346.114929 0.001827957604704298
363.122314 0.002159414762175587
398.011078 0.0014704834019055924
414.218231 0.008597072457991578
415.220337 0.0030601248714107535
451.201385 0.1277260009667934
451.702759 0.15935544331224044
452.203766 0.020873995807092975
454.210846 0.006008896788820163
460.206879 0.0302843611020196
460.708771 0.04001733775900619
461.209442 0.0076838741669992515
470.172668 0.0022692066934572853
471.715271 0.016354314692814145
472.220886 1.0
488.183777 0.012024558009425455
489.191711 0.0035976370278751825
506.198761 0.0017306538551797597
END IONS

BEGIN IONS
CHARGE=1+
PRECURSORTYPE=M+H-H2O
FORMULA=C18H17NO4
ONTOLOGY=
INCHIKEY=QCTRFEAQMSEZIE-UHFFFAOYSA-N
INCHI=InChI=1S/C18H17NO4/c1-10(2)9-14(18(22)23)19-16(20)12-7-3-5-11-6-4-8-13(15(11)12)17(19)21/h3-8,10,14H,9H2,1-2H3,(H,22,23)
SMILES=CC(C)CC(C(=O)O)N1C(=O)c2cccc3cccc(c23)C1=O
IONMODE=positive
INSTRUMENTTYPE=LC-ESI-Orbitrap
INSTRUMENT=Orbitrap
COMMENT=DB#=CCMSLIB00010109775; origin=GNPS
NUM_PEAKS=23
COMPOUND_NAME="2-(1,3-Dioxo-1H-benzo[de]isoquinolin-2(3H)-yl)-4-methylpentanoic acid "
PRECURSOR_MZ=294.112
COLLISION_ENERGY=102040
PARENT_MASS=293.10472354800925
65.956528 0.0010754316818920079
67.386978 0.0010638640133809006
69.070259 0.06628346354792684
73.945641 0.0011376079001392096
92.163658 0.0009217985844788639
92.365799 0.0010497659173829886
101.007973 0.0010891682882489479
101.369217 0.0009716841549330141
103.053772 0.007873244380372414
131.049088 0.07175713969152643
149.059906 0.0036824949725828182
155.049164 0.006300764442143764
157.933548 0.001232679675714873
180.044098 0.03407835143372214
198.054825 0.9922366484704831
210.054749 0.20520754746991593
224.070251 0.001239909468534315
228.065201 0.15269286285697553
239.079239 0.0013935425659474588
251.081161 0.0013338967751870619
266.117218 1.0
282.300751 0.001197976670181551
294.111816 0.10521192149457169
END IONS

BEGIN IONS
CHARGE=1+
PRECURSORTYPE=M+H-H2O
FORMULA=C15H12O4
ONTOLOGY=
INCHIKEY=NXTSNFDLQUTBRV-UHFFFAOYSA-N
INCHI=InChI=1S/C15H12O4/c16-11-6-8-15(19)12(9-11)14(18)7-5-10-3-1-2-4-13(10)17/h1-9,16-17,19H/b7-5+
SMILES=O=C(C=Cc1ccccc1O)c1cc(O)ccc1O
IONMODE=positive
INSTRUMENTTYPE=LC-ESI-Orbitrap
INSTRUMENT=Orbitrap
COMMENT=DB#=CCMSLIB00010108341; origin=GNPS
NUM_PEAKS=17
COMPOUND_NAME="2,2',5'-Trihydroxychalcone "
PRECURSOR_MZ=239.07
COLLISION_ENERGY=102040
PARENT_MASS=238.06272354800925
54.613571 0.0004964699632549778
66.752052 0.0005050046670258181
68.061653 0.0005235312191137397
69.353737 0.0005316495958713682
87.736298 0.0005372700105497265
102.445107 0.0005075026291050884
105.032822 0.0005703680081000584
131.048843 0.0013386995109822904
135.043716 0.0011721687056976016
141.069275 0.0005832741455096218
155.085495 0.0013476505417663422
165.069885 0.0029224074692396785
183.080643 0.003303971176848221
211.074997 0.004573144076624154
224.081757 0.0006197027591656473
238.058136 0.011891756641873006
239.069977 1.0
END IONS

BEGIN IONS
CHARGE=1+
PRECURSORTYPE=M+H-H2O
FORMULA=C5H12N2O2
ONTOLOGY=
INCHIKEY=AHLPHDHHMVZTML-SCSAIBSYSA-N
INCHI=InChI=1S/C5H12N2O2/c6-3-1-2-4(7)5(8)9/h4H,1-3,6-7H2,(H,8,9)/t4-/m1/s1
SMILES=NCCC[C@@H](N)C(=O)O
IONMODE=positive
INSTRUMENTTYPE=LC-ESI-Orbitrap
INSTRUMENT=Orbitrap
COMMENT=DB#=CCMSLIB00010103377; origin=GNPS
NUM_PEAKS=12
COMPOUND_NAME=D-ornithine
PRECURSOR_MZ=115.087
COLLISION_ENERGY=102040
PARENT_MASS=114.07972354800924
68.050201 0.0014828251400998429
70.065804 1.0
72.0811 0.001004224573581967
81.352203 0.0007777592504832228
82.939796 0.0007529764968781722
87.092102 0.008870051203259495
92.399002 0.0013058667948771432
96.835297 0.0008062519989431675
97.076401 0.05752701180593217
98.060303 0.006171262280533421
102.655998 0.0009357863001126361
115.086998 0.13467829182484392
END IONS

BEGIN IONS
CHARGE=1+
PRECURSORTYPE=M+H-H2O
FORMULA=C6H10O4
ONTOLOGY=
INCHIKEY=WNLRTRBMVRJNCN-UHFFFAOYSA-N
INCHI=InChI=1S/C6H10O4/c7-5(8)3-1-2-4-6(9)10/h1-4H2,(H,7,8)(H,9,10)
SMILES=O=C(O)CCCCC(=O)O
IONMODE=positive
INSTRUMENTTYPE=LC-ESI-Orbitrap
INSTRUMENT=Orbitrap
COMMENT=DB#=CCMSLIB00010112704; origin=GNPS
NUM_PEAKS=42
COMPOUND_NAME=adipic acid
PRECURSOR_MZ=129.055
COLLISION_ENERGY=102040
PARENT_MASS=128.04772354800926
55.05476 0.8539862616513262
55.557911 0.02123022436708245
55.934921 0.8682500145945631
57.84454 0.02268968067096071
59.049641 0.16788612348946272
59.052639 0.022825896592656016
69.901161 0.017260503220533577
69.934212 0.03137831053338263
70.055748 0.017815096616007317
70.94223 0.02190157426686645
70.958267 0.11344840335480355
72.937607 0.04423125571620386
75.026459 0.23460273599408435
83.049393 0.44074607406254257
83.156357 0.01961509272412384
83.242989 0.020539415049913405
87.944656 0.1033976142754286
88.968567 0.1253283776683726
90.947403 0.022193465527642103
93.036873 0.24288271809142034
101.05986 0.3699429839070618
105.955193 0.10619977037887486
109.174248 0.02006265932397984
111.044121 0.12529918854229505
115.573837 0.019858335441436885
116.052757 0.0412539648562922
123.965683 0.02843020879954854
125.96122 0.02601724104380315
128.950851 1.0
128.969772 0.056733931386094304
129.053864 0.02229076261456732
129.073166 0.3293019906983985
129.104111 0.03489073537138298
135.354233 0.019478876802428536
146.961411 0.47688221214656834
146.981857 0.08869602444102824
169.977509 0.16349802486913542
177.840729 0.020140496993520014
179.43988 0.02335130086205219
187.375732 0.021103738154079666
215.893326 0.021551304753935668
265.410248 0.019371850006810794
END IONS

BEGIN IONS
CHARGE=1+
PRECURSORTYPE=M+H-H2O
FORMULA=C10H10O3
ONTOLOGY=
INCHIKEY=AFDXODALSZRGIH-UHFFFAOYSA-N
INCHI=InChI=1S/C10H10O3/c1-13-9-5-2-8(3-6-9)4-7-10(11)12/h2-7H,1H3,(H,11,12)/b7-4+
SMILES=COc1ccc(C=CC(=O)O)cc1
IONMODE=positive
INSTRUMENTTYPE=LC-ESI-Orbitrap
INSTRUMENT=Orbitrap
COMMENT=DB#=CCMSLIB00010110287; origin=GNPS
NUM_PEAKS=33
COMPOUND_NAME=4-Methoxycinnamic acid
PRECURSOR_MZ=161.06
COLLISION_ENERGY=102040
PARENT_MASS=160.05272354800925
52.6446 0.00044615869778131726
53.03936 0.0006769773607204128
53.386841 0.0005097741583113259
55.01841 0.000457384955521907
66.046921 0.0011865814242174872
79.054558 0.03524109409066802
84.959923 0.00306425807873825
89.03907 0.0009685198723472439
89.195953 0.0005966926083937708
90.046562 0.000888745404463356
91.054489 0.002513661165006598
102.046227 0.0005648848781287665
103.054207 0.03230593797594655
105.069878 0.035008914669214915
107.998032 0.001964595104603208
108.996597 0.0018797177922917792
109.491707 0.0007358301664513833
110.087509 0.0005747503773553454
111.895958 0.0004997385642704957
113.963203 0.0005640344040575097
115.054497 0.0009567833301638999
117.003403 0.003757904731255296
117.503777 0.0006375153638140973
118.00174 0.001151031608038953
118.041267 0.05615561226138674
119.957428 0.003070381492051299
127.122093 0.00047762623841781884
131.049408 0.0009914826722711774
132.056366 0.0006239077786739885
133.06485 0.8196464273115119
139.968307 0.0005473651122608764
146.036438 0.002915255021454059
161.059738 1.0
END IONS

BEGIN IONS
CHARGE=1+
PRECURSORTYPE=M+H-H2O
FORMULA=C7H5NO4
ONTOLOGY=
INCHIKEY=GJAWHXHKYYXBSV-UHFFFAOYSA-N
INCHI=InChI=1S/C7H5NO4/c9-6(10)4-2-1-3-8-5(4)7(11)12/h1-3H,(H,9,10)(H,11,12)
SMILES=O=C(O)c1cccnc1C(=O)O
IONMODE=positive
INSTRUMENTTYPE=LC-ESI-Orbitrap
INSTRUMENT=Orbitrap
COMMENT=DB#=CCMSLIB00010114059; origin=GNPS
NUM_PEAKS=26
COMPOUND_NAME=quinolinic acid
PRECURSOR_MZ=150.019
COLLISION_ENERGY=102040
PARENT_MASS=149.01172354800926
55.9352 0.01284176276456796
68.050179 0.03044746813573923
71.930252 0.004293116952145904
72.937767 0.0033896105957211386
73.841911 0.0024279123044757952
78.034492 0.14248086418085942
82.379333 0.0022388581238864526
84.045097 0.002620029218476747
84.266167 0.0024256848619946246
89.940338 0.0027940481623181883
92.357964 0.00223830126326616
96.044937 0.8171445134054449
99.003967 0.0038275814735812793
105.935226 0.02376736813470904
106.029129 0.013469623113947882
112.03949 0.03919936807456809
122.023529 0.033899447120933145
123.14682 0.00231598331979698
123.945763 0.010624065344252628
124.039574 1.0
131.930283 0.002896232086141883
132.00412 0.004562359062057383
137.786942 0.0024758023178209597
140.034271 0.10983630246775568
149.94133 0.002729173900054099
150.018661 0.5335526621696459
END IONS

BEGIN IONS
CHARGE=1+
PRECURSORTYPE=M+H-H2O
FORMULA=C8H12N2O2
ONTOLOGY=
INCHIKEY=NHZMQXZHNVQTQA-UHFFFAOYSA-N
INCHI=InChI=1S/C8H12N2O2/c1-5-8(12)7(2-9)6(4-11)3-10-5/h3,11-12H,2,4,9H2,1H3
SMILES=Cc1ncc(CO)c(CN)c1O
IONMODE=positive
INSTRUMENTTYPE=LC-ESI-Orbitrap
INSTRUMENT=Orbitrap
COMMENT=DB#=CCMSLIB00010103153; origin=GNPS
NUM_PEAKS=16
COMPOUND_NAME=pyridoxamine
PRECURSOR_MZ=151.087
COLLISION_ENERGY=102040
PARENT_MASS=150.07972354800924
59.571602 0.0012681433827695231
79.054802 0.0013404152228740612
80.050201 0.002622608058281704
82.065399 0.002527477677869766
82.414299 0.0018391952738636987
82.954498 0.0012750881855730395
96.0812 0.007681479604601861
106.065002 0.16100617723924923
112.071999 0.0014086115832373852
122.059998 0.011053328590291865
123.092003 0.006238783282617833
124.075996 0.0312756076150922
134.059998 0.02988326225761646
138.054993 0.001408469918398304
150.054993 0.0021549518431200542
151.087006 1.0
END IONS

BEGIN IONS
CHARGE=1+
PRECURSORTYPE=M+H-H2O
FORMULA=C10H16N2O3S
ONTOLOGY=
INCHIKEY=YBJHBAHKTGYVGT-ZKWXMUAHSA-N
INCHI=InChI=1S/C10H16N2O3S/c13-8(14)4-2-1-3-7-9-6(5-16-7)11-10(15)12-9/h6-7,9H,1-5H2,(H,13,14)(H2,11,12,15)/t6-,7-,9-/m0/s1
SMILES=O=C(O)CCCC[C@@H]1SC[C@@H]2N=C(O)N[C@H]12
IONMODE=positive
INSTRUMENTTYPE=LC-ESI-Orbitrap
INSTRUMENT=Orbitrap
COMMENT=DB#=CCMSLIB00010102960; origin=GNPS
NUM_PEAKS=50
COMPOUND_NAME=biotin
PRECURSOR_MZ=227.085
COLLISION_ENERGY=102040
PARENT_MASS=226.07772354800926
51.985802 0.0010422985461394335
61.0401 0.004034940024274812
67.054901 0.001819510297642564
68.556801 0.0008033037961767012
69.850998 0.0008456622206824506
76.022202 0.002000066448760132
79.054703 0.0017176725185910225
82.029099 0.0008780885772080859
85.011299 0.0012522119882501142
86.791 0.0007326654124574028
92.410202 0.0007869542888923954
95.086197 0.0007963210901980471
97.010902 0.004561436055065327
97.040001 0.02527982296432973
97.046799 0.0009130519835726322
100.021004 0.0007650452176098471
101.042 0.0008127670253268199
104.324997 0.0010785121893839673
105.07 0.004957687993863518
108.081001 0.0018017043973969963
111.026001 0.0011894241611096741
115.056999 0.0013930664682319065
121.065002 0.0015675609655403859
122.096001 0.0010024239699032338
123.026001 0.011608482681665536
125.041 0.002683423981713982
133.089005 0.0008202385207239797
134.533005 0.0009225584389978569
138.541 0.0008793055631072228
139.057007 0.008944247841000513
143.026993 0.0019252118406689607
144.207993 0.0009690798863061182
149.041 0.003520214840705457
150.091003 0.0017752898182091734
151.085999 0.0019182258095922216
154.067001 0.0010144408743826888
156.084 0.0014256491043675402
158.024002 0.0010430799441894256
166.067993 0.02419873382392983
167.052002 0.0195644116188397
182.063004 0.0011824846814061259
184.078995 0.01614857160702469
185.074005 0.0008353477664225531
192.046997 0.005644387250392867
193.097 0.0016260261651702306
199.089996 0.01833199726458811
209.074005 0.021119659746171058
210.057007 0.001143178696942474
227.084 1.0
228.940002 0.0010168648708867073
END IONS

BEGIN IONS
CHARGE=1+
PRECURSORTYPE=M+H-H2O
FORMULA=C9H17NO5
ONTOLOGY=
INCHIKEY=GHOKWGTUZJEAQD-ZETCQYMHSA-N
INCHI=InChI=1S/C9H17NO5/c1-9(2,5-11)7(14)8(15)10-4-3-6(12)13/h7,11,14H,3-5H2,1-2H3,(H,10,15)(H,12,13)/t7-/m0/s1
SMILES=CC(C)(CO)[C@@H](O)C(O)=NCCC(=O)O
IONMODE=positive
INSTRUMENTTYPE=LC-ESI-Orbitrap
INSTRUMENT=Orbitrap
COMMENT=DB#=CCMSLIB00010103282; origin=GNPS
NUM_PEAKS=46
COMPOUND_NAME=pantothenic acid
PRECURSOR_MZ=202.107
COLLISION_ENERGY=102040
PARENT_MASS=201.09972354800925
55.018501 0.01645550572630258
57.070599 0.044107141159206234
62.8265 0.0029389653528108547
64.480103 0.0031318598851379836
64.704697 0.003063434056080809
66.7631 0.0032734406942432704
67.054901 0.01920262179525782
69.070503 0.06065183560532346
70.029297 0.04017222963528774
72.044998 0.09921650412508043
73.028999 0.09409081832847874
74.0242 0.007150572319331619
83.0494 0.006059510435835428
85.065201 0.04271003362820078
86.097 0.049226804940588065
87.080803 0.0366953082162474
90.055199 0.02511614664716379
91.540199 0.00323493149165317
92.404503 0.0050424869021168965
95.0495 0.06718033399998098
96.0812 0.006503047209112893
98.024002 0.18102558088675758
99.080803 0.004702116139000789
100.040001 0.09180118475225746
103.075996 0.022148273702176483
112.075996 0.006490116095261941
113.059998 0.038855626939326614
116.033997 0.2511687463749053
118.050003 0.0029593546532745503
124.075996 0.1906890136256018
128.033997 0.004145618605174496
130.085999 0.019537223730226396
131.070007 0.013167579510568636
132.102005 0.01391583099658013
138.091003 0.003116465923000612
142.085999 0.22929742099274505
148.097 0.015855269035431635
156.102005 0.03009197786370595
157.938004 0.0033292235720692597
160.097 0.11081141900864952
160.748001 0.003340728728815977
166.085999 0.032719510378467806
174.113007 0.04966831374065399
181.371002 0.003103125314333347
184.097 0.34214871842007677
202.106995 1.0
END IONS

BEGIN IONS
CHARGE=1+
PRECURSORTYPE=M+H-H2O
FORMULA=C20H34O5
ONTOLOGY=
INCHIKEY=GMVPRGQOIOIIMI-UHFFFAOYSA-N
INCHI=InChI=1S/C20H34O5/c1-2-3-6-9-15(21)12-13-17-16(18(22)14-19(17)23)10-7-4-5-8-11-20(24)25/h12-13,15-17,19,21,23H,2-11,14H2,1H3,(H,24,25)/b13-12+/t15-,16+,17+,19+/m0/s1
SMILES=CCCCCC(O)C=CC1C(O)CC(=O)C1CCCCCCC(=O)O
IONMODE=positive
INSTRUMENTTYPE=LC-ESI-Orbitrap
INSTRUMENT=Orbitrap
COMMENT=DB#=CCMSLIB00010109974; origin=GNPS
NUM_PEAKS=128
COMPOUND_NAME=alprostadil
PRECURSOR_MZ=337.237
COLLISION_ENERGY=102040
PARENT_MASS=336.22972354800925
55.018299 0.018384225504617872
55.054749 0.059279020647748766
57.034012 0.007889384770459864
57.07029 0.018256000740854192
58.796162 0.005148580445011167
67.054642 0.13615332832306942
69.070282 0.05834582931146864
71.013138 0.05134333249037424
71.085793 0.021276406287287584
73.047333 0.003791535028512201
73.949707 0.005396125475054941
79.054558 0.05917038577844898
81.070221 0.12861478075346297
82.397583 0.006300822419387584
83.049469 0.010500183432648162
83.085709 0.06702415255897448
85.065041 0.011700509693435961
91.054367 0.05459169317238751
93.070053 0.11769074324059596
95.049057 0.04422863900098662
95.08564 0.11719031048201826
97.064758 0.024298592733217692
97.101097 0.028309178399826183
99.080467 0.008053227524157902
105.069839 0.07384499763140367
107.049263 0.0185569727557995
107.085411 0.06487638776593281
109.06485 0.023415266582845665
109.101242 0.0614534989332412
111.080482 0.06858065871910585
111.116524 0.0061191706707223684
113.096519 0.007127159785864644
117.06955 0.047797561592409096
119.0858 0.056141075734531996
121.064796 0.02403323870820674
121.101013 0.054748412328098676
123.043907 0.009485070719519016
123.116898 0.030683117428951013
125.096268 0.01742432067588698
129.070129 0.034645618809148127
131.085526 0.07023333345205997
133.06517 0.02159696819669679
133.101105 0.055218569795232174
135.07959 0.008859974996171065
135.116867 0.043867116403152905
137.096451 0.006297260620394149
137.132538 0.0110041779902193
139.111557 0.0063204123138514805
143.085556 0.03021830266030767
145.1008 0.03924212041017677
147.080353 0.02197451889000096
147.116867 0.09378216749715947
149.096054 0.00913957621715576
149.132416 0.06446143818319756
153.127151 0.019580989966412235
157.101028 0.04567651029181819
159.116516 0.04728644343685109
161.096298 0.008453929910919407
161.132019 0.035630456230833066
163.111862 0.01164352090954099
163.148315 0.017347741997528112
165.127106 0.025023418828381837
169.101349 0.009579458392845058
171.117447 0.04716534227107427
173.132095 0.07797134176529882
175.11142 0.03134739294122676
175.148254 0.04533992028693853
177.127228 0.02938306079634702
179.143127 0.00599628860544884
181.102737 0.007036333911532037
183.117462 0.008097750011575847
185.132004 0.04549663944264969
187.148056 0.024889851366128004
189.12738 0.05584010371958669
189.163422 0.007898289267943453
191.142639 0.04852238768757324
193.122314 0.06748362462912769
193.159164 0.006886738353807741
195.137787 0.006730019198096575
197.133377 0.0056864120930199425
197.426346 0.005666822198556047
199.114029 0.00574518177641163
199.147736 0.028510420042955297
201.127991 0.0056810693945297894
203.108398 0.03800617615945462
203.142929 0.06057017278286917
205.121948 0.02112502983006657
207.138412 0.019028911122429718
209.115341 0.00962576177975972
209.134293 0.008060351122144772
209.152863 0.008603525468643703
211.132294 0.021573816503239456
213.163528 0.011816268160722617
217.121887 0.00670152480614909
217.1586 0.009607952784792543
219.138275 0.009429862835120763
221.11731 0.0238088453716203
221.152725 0.028448088560570173
227.179001 0.006188625751094363
229.195282 0.011244599422276203
231.137848 0.007755817308206028
231.209473 0.0050577545706785585
233.152313 0.006128075168205957
239.127335 0.006553710147921513
243.743851 0.005946423419540742
245.154358 0.009713025855098893
245.189224 0.005298176002735462
245.226807 0.02128709168426789
247.205368 0.009217935795011345
249.147888 0.009193003202057294
249.221207 0.02504657052183917
255.210022 0.06541243851444488
257.190826 0.016963067706237067
259.169464 0.00898641886043803
261.220551 0.01085814423148844
263.200043 0.0651257136954733
265.189026 0.010740604864705065
265.218994 0.07777366192116314
271.206238 0.01009770014638994
273.220856 0.13211068646552002
275.200897 0.09433246544164527
277.21579 0.008998885156915055
283.205322 0.09874197259551855
289.215729 0.4587953283444402
291.231659 0.17575340953208646
301.215759 0.7522270148206456
319.226257 1.0
337.236725 0.4787235937127124
END IONS

BEGIN IONS
CHARGE=1+
PRECURSORTYPE=M+H-H2O
FORMULA=C17H14N2O8
ONTOLOGY=
INCHIKEY=QVNCBRMSRLGETO-UHFFFAOYSA-N
INCHI=InChI=1S/C17H14N2O8/c1-25-17(22)13-12(9-4-2-3-5-10(9)19(23)24)15-14(27-16(13)18)11(21)6-8(7-20)26-15/h2-6,12,20H,7,18H2,1H3
SMILES=COC(=O)C1=C(N)Oc2c(oc(CO)cc2=O)C1c1ccccc1[N+](=O)[O-]
IONMODE=positive
INSTRUMENTTYPE=LC-ESI-Orbitrap
INSTRUMENT=Orbitrap
COMMENT=DB#=CCMSLIB00010108913; origin=GNPS
NUM_PEAKS=114
COMPOUND_NAME="methyl 2-amino-6-(hydroxymethyl)-4-(2-nitrophenyl)-8-oxo-4H-pyrano[3,2-b]pyran -3-carboxylate "
PRECURSOR_MZ=357.072
COLLISION_ENERGY=102040
PARENT_MASS=356.0647235480092
55.01812 0.0010276339330760641
67.018242 0.01759232472378718
68.235077 0.0008822226645868079
68.997337 0.0010770188921856228
73.938797 0.0010355599141677217
83.012703 0.001962290011038453
85.028419 0.008002497293734725
101.02301 0.005559466044944581
113.023117 0.008897523466238826
120.043983 0.0018366936952783407
122.563347 0.000998978462975456
141.043793 0.0012870573911145484
142.05246 0.018758358480540648
154.064453 0.0012273076875005144
155.059998 0.0037325274033175107
156.044174 0.001044400431539186
157.039307 0.004040421284185748
157.074722 0.003323119995390737
158.046555 0.0019315006229516294
160.039215 0.002276890491291938
167.036346 0.001518435069905629
168.031937 0.0011620707662076406
168.06781 0.0011550593213957897
169.022858 0.0019833243454740056
169.039352 0.055761410897797216
170.046295 0.0020461225033540616
170.060959 0.001652262212184001
171.054855 0.001798892862379666
174.054352 0.0017159749063438638
177.041794 0.0036194297500480896
179.060364 0.004246191947142242
183.054916 0.015253550610894992
184.060898 0.0017656647108800247
185.033783 0.011105518891118663
185.070969 0.005454904063620022
186.04129 0.0015903785905837515
187.049133 0.0015202641424652422
195.054352 0.004217536477041634
196.062775 0.0022226280053567436
197.03392 0.01482371855938587
197.070068 0.001814439979136379
198.039856 0.0025003421889913608
199.049301 0.0014980104263232806
200.057236 0.004853748882360454
201.065186 0.010861032858983688
207.054184 0.0013730238014163728
208.063202 0.003279831944813223
209.047882 0.0012513904762020893
209.070633 0.0014528933031861529
210.055756 0.0010803721918782472
211.04863 0.009251449006523997
212.032715 0.0013922290632923124
213.030258 0.0015537971393914858
213.065826 0.003977623126305691
214.036835 0.0016861000545368469
215.045288 0.004129436148753594
216.052536 0.0015038024894287226
221.070786 0.0020543533298723214
222.057297 0.0009401432956412287
223.048767 0.0021769011913664116
224.057327 0.004760161336393575
225.065414 0.001963509392744862
226.050781 0.0014178360791268984
227.044983 0.001585196218331514
229.060196 0.001588244672597536
235.049637 0.021354117288058503
236.057632 0.010635142397871448
237.064941 0.00450744447774034
238.048233 0.0023433467942912205
239.043472 0.004304112578196662
240.044037 0.0010578136303096832
241.059418 0.0017860893544623731
243.051743 0.0015266658964238889
249.064728 0.00380538546027544
250.047699 0.0013455877130221735
250.074219 0.006711172066647746
251.055389 0.005947534273009199
252.051712 0.017643843600882954
253.060303 0.06401571051390537
254.068039 0.003985853952823951
255.050903 0.0038090436053946665
256.060028 0.002104957670688289
257.055023 0.005254620618342367
263.045502 0.0020970316895966316
264.05307 0.007603454630312427
265.060577 0.004535490256987743
267.047882 0.002481746617968626
267.07666 0.021865952759323622
268.05954 0.02452298549758852
269.058563 0.0020442934307944487
270.064392 0.018334623337563572
271.047089 0.0015175205336258224
278.068329 0.006942854590865429
279.075684 0.004096512842680555
280.047363 0.014447539302958739
281.027863 0.0026734943913014186
281.054962 0.12386997610926392
282.062958 0.2557086116699097
283.046509 0.034687141711359545
295.071106 0.010016306181868953
296.079681 0.07910738820327459
297.050018 0.0062953629047623255
298.057861 1.0
299.040161 0.002100384989289256
308.001892 0.002080874881986714
308.042114 0.0483658608484275
311.06543 0.0057548719633966
312.049438 0.08898651394317254
313.080994 0.026462107256205205
325.044861 0.09753529424137844
327.062622 0.0022348218224208325
329.075836 0.001959851247625635
340.069061 0.01735149683677143
357.070892 0.5932526732657573
END IONS

BEGIN IONS
CHARGE=1+
PRECURSORTYPE=M+H-H2O
FORMULA=C9H8O3
ONTOLOGY=
INCHIKEY=PMOWTIHVNWZYFI-AATRIKPKSA-N
INCHI=InChI=1S/C9H8O3/c10-8-4-2-1-3-7(8)5-6-9(11)12/h1-6,10H,(H,11,12)/b6-5+
SMILES=O=C(O)/C=C/c1ccccc1O
IONMODE=positive
INSTRUMENTTYPE=LC-ESI-Orbitrap
INSTRUMENT=Orbitrap
COMMENT=DB#=CCMSLIB00010102906; origin=GNPS
NUM_PEAKS=20
COMPOUND_NAME=2-Hydroxycinnamic acid
PRECURSOR_MZ=147.044
COLLISION_ENERGY=102040
PARENT_MASS=146.03672354800926
51.333801 0.003996780421003208
57.150398 0.004471823116049769
64.928001 0.18810660346774283
64.931702 0.007845773519054699
78.341904 0.0047935339899164925
82.938797 0.006417046084536013
91.054901 0.11061674846008518
92.395302 0.004985321923244608
103.055 0.32569282192883414
105.07 0.008717650828926922
105.954002 0.07518786052563915
119.085999 0.01821734314109085
123.964996 1.0
146.968994 0.007059908336221256
146.981003 0.08130503937933886
147.044006 0.7331090069645512
147.054993 0.03257844945390317
147.080002 0.013812549868646105
147.091995 0.11006920184230826
147.117004 0.023039809488781815
END IONS

BEGIN IONS
CHARGE=1+
PRECURSORTYPE=M+H-H2O
FORMULA=C6H14N2O3
ONTOLOGY=
INCHIKEY=YSMODUONRAFBET-UHFFFAOYSA-N
INCHI=InChI=1S/C6H14N2O3/c7-3-4(9)1-2-5(8)6(10)11/h4-5,9H,1-3,7-8H2,(H,10,11)
SMILES=NCC(O)CCC(N)C(=O)O
IONMODE=positive
INSTRUMENTTYPE=LC-ESI-Orbitrap
INSTRUMENT=Orbitrap
COMMENT=DB#=CCMSLIB00010102949; origin=GNPS
NUM_PEAKS=21
COMPOUND_NAME=5-hydroxylysine
PRECURSOR_MZ=145.097
COLLISION_ENERGY=102040
PARENT_MASS=144.08972354800926
55.054901 0.1104330232075537
55.0578 0.004061535247697114
56.050098 0.049963337390331916
70.246696 0.0021632541417355516
72.081299 0.003125070648151351
73.965103 0.0029536424918433462
74.0242 0.042859671867326116
82.065697 0.6890037929881598
82.410202 0.0024050138472889934
84.081497 0.0026939900044962474
92.319504 0.0024749823061137434
92.390297 0.0024248493053874265
96.702698 0.0023410807191690014
99.092003 0.026730767013684733
100.075996 0.15485479426786106
121.966003 0.013114343029087263
127.086998 0.015429967839726074
128.070999 1.0
145.097 0.10841778208187781
145.106995 0.0022400650341830087
145.110001 0.002509839875949688
END IONS

BEGIN IONS
CHARGE=1+
PRECURSORTYPE=M+H-H2O
FORMULA=C6H14N2O3
ONTOLOGY=
INCHIKEY=YSMODUONRAFBET-UHFFFAOYSA-N
INCHI=InChI=1S/C6H14N2O3/c7-3-4(9)1-2-5(8)6(10)11/h4-5,9H,1-3,7-8H2,(H,10,11)
SMILES=NCC(O)CCC(N)C(=O)O
IONMODE=positive
INSTRUMENTTYPE=LC-ESI-Orbitrap
INSTRUMENT=Orbitrap
COMMENT=DB#=CCMSLIB00010126564; origin=GNPS
NUM_PEAKS=21
COMPOUND_NAME=5-hydroxylysine
PRECURSOR_MZ=145.097
COLLISION_ENERGY=102040
PARENT_MASS=144.08972354800926
55.054901 0.1104330232075537
55.0578 0.004061535247697114
56.050098 0.049963337390331916
70.246696 0.0021632541417355516
72.081299 0.003125070648151351
73.965103 0.0029536424918433462
74.0242 0.042859671867326116
82.065697 0.6890037929881598
82.410202 0.0024050138472889934
84.081497 0.0026939900044962474
92.319504 0.0024749823061137434
92.390297 0.0024248493053874265
96.702698 0.0023410807191690014
99.092003 0.026730767013684733
100.075996 0.15485479426786106
121.966003 0.013114343029087263
127.086998 0.015429967839726074
128.070999 1.0
145.097 0.10841778208187781
145.106995 0.0022400650341830087
145.110001 0.002509839875949688
END IONS

BEGIN IONS
CHARGE=1+
PRECURSORTYPE=M+H-H2O
FORMULA=C22H30O6
ONTOLOGY=
INCHIKEY=BOJKFRKNLSCGHY-UHFFFAOYSA-N
INCHI=InChI=1S/C22H30O6/c1-11-6-16-20(26,18(11)25)9-14(10-23)7-15-17-19(4,5)21(17,28-13(3)24)8-12(2)22(15,16)27/h6-7,12,15-17,23,26-27H,8-10H2,1-5H3/t12-,15+,16-,17-,20-,21+,22-/m1/s1
SMILES=CC(=O)OC12CC(C)C3(O)C(C=C(CO)CC4(O)C(=O)C(C)=CC43)C1C2(C)C
IONMODE=positive
INSTRUMENTTYPE=LC-ESI-Orbitrap
INSTRUMENT=Orbitrap
COMMENT=DB#=CCMSLIB00010113610; origin=GNPS
NUM_PEAKS=63
COMPOUND_NAME=12-Deoxyphorbol-13-acetate
PRECURSOR_MZ=373.201
COLLISION_ENERGY=102040
PARENT_MASS=372.19372354800925
52.811951 0.004847229414810979
53.016579 0.004635939927498705
56.320492 0.0044432936302433975
72.255623 0.005052304505437597
72.702011 0.004963231486276541
75.298637 0.005754531330916623
104.280869 0.007830139823925428
117.725922 0.00645261522527188
119.805206 0.0061584671154842055
129.64415 0.00523045054375971
145.101624 0.008838943552563438
155.085434 0.006208182288969446
163.074921 0.005706887622993268
167.085648 0.0059161056447436565
169.101273 0.009311237700673226
171.080734 0.009779388917659244
171.116837 0.007606421543241843
173.095459 0.005897462454686691
179.085159 0.00677783531848783
181.100845 0.011040911444847229
183.116745 0.02095080269290523
185.096695 0.005450025893319523
185.132935 0.01105748316934231
185.393326 0.005017089590885551
193.102371 0.006293112377006732
195.116013 0.010833764888658726
197.09642 0.020762299326773693
197.132141 0.012486794407042983
199.110352 0.005746245468669083
207.116806 0.021062661833247023
208.088394 0.005093733816675298
209.096359 0.0189062661833247
209.133194 0.006079751424132574
210.104248 0.008940445365095806
211.111771 0.028232004142931123
213.126648 0.007345416882444329
223.111221 0.00857172449508027
225.09111 0.009170378042465043
225.127838 0.05340238218539617
225.166595 0.005692387364060072
227.105865 0.005978249611600207
234.140396 0.0065831175556706365
235.111023 0.009528741584671156
237.127625 0.011774210253754532
237.163193 0.023767995857068878
239.106201 0.009319523562920767
239.179947 0.037787674779906785
249.163651 0.02599896426721906
252.15036 0.007428275504919731
253.122513 0.019324702226825478
253.157822 0.011175556706369756
262.135803 0.02104194717762817
265.128845 0.005336095287415847
265.158569 0.04674676333505955
267.174744 0.1050108751941999
277.1586 0.06957638529259451
285.184174 0.0603873640600725
295.168884 1.0
313.179108 0.2283480062143967
332.151733 0.01165820818228897
341.157654 0.010543759709994821
373.148682 0.04131952356292077
373.284698 0.009354738477472813
END IONS

BEGIN IONS
CHARGE=1+
PRECURSORTYPE=M+H-H2O
FORMULA=C30H48O4
ONTOLOGY=
INCHIKEY=KLHSKTMVSOWVLD-UHFFFAOYSA-N
INCHI=InChI=1S/C30H48O4/c1-25(2)12-14-30(24(33)34)15-13-28(6)18(19(30)16-25)8-9-21-27(5)11-10-22(32)26(3,4)23(27)20(31)17-29(21,28)7/h8,19-23,31-32H,9-17H2,1-7H3,(H,33,34)/t19?,20-,21?,22+,23?,27-,28-,29-,30+/m1/s1
SMILES=CC1(C)CCC2(C(=O)O)CCC3(C)C(=CCC4C5(C)CCC(O)C(C)(C)C5C(O)CC43C)C2C1
IONMODE=positive
INSTRUMENTTYPE=LC-ESI-Orbitrap
INSTRUMENT=Orbitrap
COMMENT=DB#=CCMSLIB00010112301; origin=GNPS
NUM_PEAKS=140
COMPOUND_NAME=Sumaresinolic acid
PRECURSOR_MZ=455.352
COLLISION_ENERGY=102040
PARENT_MASS=454.3447235480092
55.05447 0.002313342605340956
57.06995 0.002230473621204875
60.530281 0.0017647099935002761
67.054169 0.010591754436236311
69.070137 0.012976983389261577
71.589996 0.0015161030410920334
79.053947 0.002589406148878623
81.070068 0.029092504749990266
83.085747 0.014371778218636336
85.064774 0.001938934544485169
91.053886 0.0038938438329001847
93.070061 0.017167857617107353
95.085541 0.08613082716225648
96.991959 0.0018061444855683164
97.100616 0.004073559702110962
105.069748 0.018000541144450623
107.085442 0.04830213432563118
109.10112 0.08832735445261042
111.080383 0.015525454256819967
111.115936 0.0037340963936017156
113.09539 0.003469514697263626
119.085487 0.06442414542608137
121.101097 0.061094908948951705
123.116676 0.02764878726733035
123.471817 0.0018271113369762405
127.111549 0.006142788251773945
131.084625 0.00624013434759645
133.101059 0.06280869944617559
135.079697 0.00700292837024664
135.106018 0.001919465325320668
135.116714 0.05396967394549218
137.095718 0.0039487570151590335
137.13176 0.008948352654453309
139.074493 0.0017741949977086227
145.101044 0.027608351196757926
147.116745 0.04954267303393335
149.132446 0.04621343655680369
151.110901 0.0028065628241749794
151.146744 0.002781103076036786
153.089767 0.008942362125479617
157.100998 0.002555459818027698
159.116669 0.03995832588677301
161.118759 0.0028295265185741343
161.132294 0.04584701586791283
163.110504 0.003121564806041648
163.133911 0.0027676243858459773
163.147919 0.06440966831439494
165.090332 0.0016069593971930378
165.127838 0.0022459491543869144
171.115753 0.007539080713392127
172.817123 0.001803648431829278
173.132446 0.030718434155599997
175.131805 0.0027975770307144404
175.147888 0.05596701614747085
177.126602 0.0040515944292074235
177.163742 0.09224815566589223
179.104935 0.002111162252478831
179.142349 0.009268845954545864
185.1315 0.01112291467190372
187.147934 0.07958867031223635
189.163559 0.20732322198604006
191.161423 0.002093689876305561
191.179306 0.04778245593716334
193.122925 0.0018825237299828971
193.157471 0.010180404780042753
195.173111 0.0018770324117570122
199.148438 0.01161913015522459
201.163574 0.13277558180516602
203.17926 0.17938439327423344
205.158768 0.04367644753644488
205.194168 0.023440440663311305
207.137756 0.002942847358326486
207.174408 0.03499467342132089
213.163086 0.013006436823382232
215.178955 0.0637731746109401
217.158798 0.014526533550456728
217.194946 0.019001458693805096
219.137054 0.0018540687173578573
219.174133 0.046029227790862645
219.210083 0.0028260320433394805
221.152649 0.006391395204182188
221.189941 0.022181431157340246
225.163025 0.001782182369673546
227.178635 0.009229907516216862
229.194916 0.05577781527405173
231.174057 0.01091524300081571
231.210052 0.0036292621365620953
233.152405 0.0021271369964086777
233.190247 0.025208645132046233
235.168884 0.027534468006082384
235.19606 0.002239459414665414
235.20433 0.0022963694399154937
241.19397 0.01593580549151791
243.210358 0.04353217563032845
245.189407 0.006477259452805115
245.226105 0.0019034905813908212
247.168198 0.04178044511627117
247.203979 0.01261555480784879
249.184952 0.02436148449301654
253.193939 0.003394633085092469
255.2099 0.028465995261491583
257.225586 0.004036118896025384
259.170471 0.002272906534768531
259.205048 0.003556377367382169
261.184479 0.02330615297215103
261.220245 0.08884853047332168
267.208221 0.002965311841977833
273.183746 0.010752001086282588
273.220337 0.015409637363328578
275.200378 0.04084692101787075
281.224854 0.00692654912583206
283.242401 0.007884035340127259
285.21936 0.0018201223865069326
287.199432 0.013182658217358357
295.241211 0.003544396309434784
297.260559 0.0034215904654740855
299.200348 0.006537663953289849
301.215546 0.009385661269532868
307.238739 0.0025319969128807357
313.215759 0.002578423512426853
315.229706 0.006382908621469457
323.273315 0.0031455269219364183
327.230835 0.006461284708875268
329.247253 0.01155373354726178
341.248322 0.01668262477023825
343.26181 0.018683960658199387
349.289185 0.0020138161566563262
353.247589 0.0035044594496101665
355.25885 0.003144528500440803
367.259857 0.006250617773300412
369.278259 0.002119648835191562
381.276978 0.0024181768623805764
391.335388 0.07019302482774734
393.351135 0.003081128735469223
395.292267 0.010019658919248668
409.345764 0.39835020832064505
411.361328 0.03853008393729514
419.326996 0.012547162935399134
437.340637 0.43003162000876616
455.351379 1.0
END IONS

BEGIN IONS
CHARGE=1+
PRECURSORTYPE=M+H-H2O
FORMULA=C17H24O3
ONTOLOGY=
INCHIKEY=YKPUDDGWRMLKKI-UHFFFAOYSA-N
INCHI=InChI=1S/C17H24O3/c1-17(2)12-14(8-9-20-17)15(11-16(18)19)10-13-6-4-3-5-7-13/h3-7,14-15H,8-12H2,1-2H3,(H,18,19)
SMILES=CC1(C)CC(C(CC(=O)O)Cc2ccccc2)CCO1
IONMODE=positive
INSTRUMENTTYPE=LC-ESI-Orbitrap
INSTRUMENT=Orbitrap
COMMENT=DB#=CCMSLIB00010113307; origin=GNPS
NUM_PEAKS=94
COMPOUND_NAME="3-(2,2-dimethyl(2H-3,4,5,6-tetrahydropyran-4-yl))-4-phenylbutanoic acid "
PRECURSOR_MZ=259.169
COLLISION_ENERGY=102040
PARENT_MASS=258.1617235480092
53.038849 0.005314632343508513
55.054691 0.06225450369275316
57.033981 0.010757548915998266
57.070339 0.141132505390992
59.049702 0.0074282677352946564
60.545151 0.005488732368554481
67.054558 0.045789833780291875
69.070267 0.08094734848716241
71.049477 0.0097221119249354
71.086067 0.04666796987153251
73.963058 0.004654884880176421
75.040001 0.004883963860500064
79.05442 0.007774940592184436
81.070038 0.024239610504645723
83.049149 0.0062126219463771925
83.085861 0.04769729808978674
85.065071 0.05076084765331493
85.101501 0.008478976658379099
91.054314 0.3462544059523882
93.070091 0.0312708080073794
95.085693 0.08086946163385238
97.064857 0.020267380985833756
97.101227 0.15468023628733224
99.080467 0.006618855338151119
105.069801 0.03838294674982743
107.085472 0.03774916157093201
109.101112 0.16671146433392997
111.080238 0.03315383722563974
113.095947 0.032848398585208216
115.05442 0.01935870103054997
115.111473 0.01760395604127087
117.069733 0.1698559551371725
119.085617 0.020253636247014338
121.101021 0.006157642991099518
122.023071 0.0046472489141656335
122.863243 0.004714445415060569
123.080109 0.006550131644054026
125.096077 0.009100544291657249
128.062454 0.00775966866016286
129.069763 0.4792103189390283
131.037903 0.004357082205755686
131.048386 0.00948539697860097
131.08551 0.08541897018307992
133.064865 0.010612465561793292
135.080032 0.010206232170019364
137.096634 0.006084337717395952
141.069794 0.19326935411945095
141.081665 0.008749289855160996
143.085464 0.673852619747219
145.064728 0.3754986285805045
145.100555 0.048813676320563965
149.095795 0.019262487858814042
150.104309 0.02400289555831129
152.063019 0.006017141216501017
153.069641 0.023553900756876953
155.085464 0.07321669649784054
157.064697 0.69450027184039
157.101013 0.5068433527388683
159.080688 0.029804702533308084
165.069733 0.01033146201259629
166.077805 0.01738404022016017
167.085419 1.0
169.100998 0.06585715245664299
171.080383 0.12573687072004106
171.116791 0.06691244295933389
173.096436 0.025849272139719853
175.075027 0.10075046273954025
179.085815 0.010168052339965424
180.092651 0.006024777182511805
181.082764 0.009575501377528267
181.100906 0.26971148266024836
183.11676 0.12702429458945994
185.095917 0.4731351443808453
185.132919 0.010446001502758111
185.414474 0.00487327350808496
187.111816 0.050663107288376835
189.090851 0.06223770456752943
195.116684 0.10760450583082365
197.132553 0.12600107514401432
199.11499 0.062285047556796314
199.147873 0.4504777060336349
203.106506 0.09463863554450547
208.123917 0.008376654713834537
209.341339 0.018535543894587017
213.126495 0.03967189781244846
213.163513 0.03937409513802772
215.142822 0.5890659075498323
217.123001 0.022107648794433686
217.158936 0.042304778892968194
223.12793 0.008715691604713529
223.147842 0.5278300417229183
241.158356 0.9103980476362104
259.168793 0.4852503680535617
262.160248 0.004523546264790866
END IONS

BEGIN IONS
CHARGE=1+
PRECURSORTYPE=M+H-H2O
FORMULA=C11H15NO4
ONTOLOGY=
INCHIKEY=DWOJIEHUWQDXGP-UHFFFAOYSA-N
INCHI=InChI=1S/C11H15NO4/c1-15-9-6-8(12)5-7(11(9)16-2)3-4-10(13)14/h5-6H,3-4,12H2,1-2H3,(H,13,14)
SMILES=COc1cc(N)cc(CCC(=O)O)c1OC
IONMODE=positive
INSTRUMENTTYPE=LC-ESI-Orbitrap
INSTRUMENT=Orbitrap
COMMENT=DB#=CCMSLIB00010105808; origin=GNPS
NUM_PEAKS=31
COMPOUND_NAME="3-(3-amino-5,6-dimethoxyphenyl)propanoic acid "
PRECURSOR_MZ=208.097
COLLISION_ENERGY=102040
PARENT_MASS=207.08972354800926
81.858887 0.0005136973679908328
82.403969 0.0005874067033537558
82.956238 0.000573042832872776
84.960037 0.010051685363953074
92.380562 0.0008805430601432267
102.970291 0.0009353525659259131
106.065277 0.0031356707256570667
107.073387 0.0006832288393255558
108.0811 0.0007255644575852859
123.06794 0.004014512801138072
124.075569 0.0010680293695791744
125.986366 0.002704943609523473
136.075821 0.00677899087383929
138.091522 0.02154826269931524
143.996643 0.005571669760253772
148.075958 0.0011173579247835922
149.083099 0.0009344075744469012
151.062943 0.3819906925899249
153.178391 0.0005586789623917961
162.055222 0.006945309374145374
164.071304 0.0013025762546699116
165.078613 0.1767287154371729
166.086456 0.584713666636868
176.070511 0.007808842587666387
177.078613 0.4050430037272354
178.086349 0.006900138781448607
180.10202 0.05380441284560937
184.968704 0.006553515906947067
193.073517 0.03856529125676874
202.962967 0.0006382472449245925
208.097 1.0
END IONS

BEGIN IONS
CHARGE=1+
PRECURSORTYPE=M+H-H2O
FORMULA=C4H9NO3
ONTOLOGY=
INCHIKEY=AYFVYJQAPQTCCC-UHFFFAOYSA-N
INCHI=InChI=1S/C4H9NO3/c1-2(6)3(5)4(7)8/h2-3,6H,5H2,1H3,(H,7,8)
SMILES=CC(O)C(N)C(=O)O
IONMODE=positive
INSTRUMENTTYPE=LC-ESI-Orbitrap
INSTRUMENT=Orbitrap
COMMENT=DB#=CCMSLIB00010102929; origin=GNPS
NUM_PEAKS=9
COMPOUND_NAME=DL-Threonine
PRECURSOR_MZ=102.055
COLLISION_ENERGY=102040
PARENT_MASS=101.04772354800924
56.050301 1.0
57.034401 0.010299344531423985
65.692001 0.007767735191418019
74.0606 0.00947938320580536
84.045097 0.04175513657468685
92.371902 0.008558618605217932
92.379097 0.008811321542773346
102.055 0.07872950879249707
102.092003 0.030316907162996298
END IONS

BEGIN IONS
CHARGE=1+
PRECURSORTYPE=M+H-H2O
FORMULA=C20H19NO5S
ONTOLOGY=
INCHIKEY=OUDDLDSJJYPMJB-UHFFFAOYSA-N
INCHI=InChI=1S/C20H19NO5S/c1-26-20(23)18(19(22)15-8-3-2-4-9-15)21-27(24,25)17-12-11-14-7-5-6-10-16(14)13-17/h2-13,18-19,21-22H,1H3
SMILES=COC(=O)C(NS(=O)(=O)c1ccc2ccccc2c1)C(O)c1ccccc1
IONMODE=positive
INSTRUMENTTYPE=LC-ESI-Orbitrap
INSTRUMENT=Orbitrap
COMMENT=DB#=CCMSLIB00010111312; origin=GNPS
NUM_PEAKS=55
COMPOUND_NAME=methyl 3-hydroxy-2-[(2-naphthylsulfonyl)amino]-3-phenylpropanoate
PRECURSOR_MZ=368.095
COLLISION_ENERGY=102040
PARENT_MASS=367.08772354800925
52.404308 0.0012227257553840396
57.369041 0.0010086117658166173
77.989143 0.00111819766598892
91.054359 0.002275171881269578
103.054153 0.14707523662124752
104.049118 0.002439550731528032
105.033478 0.039773780983305855
106.065018 0.04014848046504884
116.049538 0.01948057969255254
117.057327 0.018901881842796498
117.069923 0.001651375218750316
118.064957 0.021394539587484954
121.065933 0.0014608643461430822
127.055069 0.005334304433002553
128.061966 0.0017449447181282053
131.049026 0.008460031493301772
135.08049 0.0050763560833662095
137.00528 0.0014351538080257342
143.049301 0.0015143928435349377
144.044235 0.0025112030508714607
145.052048 0.008640848228586072
145.064545 0.07805382185041693
147.026169 0.007419808410127761
155.060272 0.09491234813923141
159.02626 0.012303546199729575
159.114868 0.0012164034919125606
165.766998 0.0014364182607200298
166.065674 0.002689490880767169
167.072266 0.0011670898368350243
175.020981 0.04346977620873248
177.078232 0.15658813572466626
186.036789 0.0027868537382279455
187.020813 0.008449072903284543
191.015869 0.19054374837728572
192.065445 0.001594053363275573
203.015488 0.005649996122345071
215.08432 0.001335262045176366
216.09285 0.0019797114350357924
217.100983 0.03555683124782936
218.026413 0.016126829663048646
223.042267 0.001696474031513533
230.025223 0.0014857319157975662
243.103714 0.10331126441897556
244.111649 0.10105927417043474
247.056854 0.0017103830111507869
250.053207 0.030081751081528538
259.09845 0.006728995754810821
260.105957 0.004927572149670737
262.068207 0.023402911950258117
263.05191 0.01439495095609483
290.063812 0.020825957359283276
308.073364 1.0
322.089752 0.024284656962413723
336.068237 0.06255879705028475
368.094391 0.2616637331364159
END IONS

BEGIN IONS
CHARGE=1+
PRECURSORTYPE=M+H-H2O
FORMULA=C30H48O3
ONTOLOGY=
INCHIKEY=MIJYXULNPSFWEK-UHFFFAOYSA-N
INCHI=InChI=1S/C30H48O3/c1-25(2)14-16-30(24(32)33)17-15-28(6)19(20(30)18-25)8-9-22-27(5)12-11-23(31)26(3,4)21(27)10-13-29(22,28)7/h8,20-23,31H,9-18H2,1-7H3,(H,32,33)/t20-,21-,22+,23-,27-,28+,29+,30-/m0/s1
SMILES=CC1(C)CCC2(C(=O)O)CCC3(C)C(=CCC4C5(C)CCC(O)C(C)(C)C5CCC43C)C2C1
IONMODE=positive
INSTRUMENTTYPE=LC-ESI-Orbitrap
INSTRUMENT=Orbitrap
COMMENT=DB#=CCMSLIB00010113746; origin=GNPS
NUM_PEAKS=81
COMPOUND_NAME=OLEANOLIC ACID
PRECURSOR_MZ=439.357
COLLISION_ENERGY=102040
PARENT_MASS=438.34972354800925
55.054741 0.006995885205744962
57.070492 0.005665585557586645
67.054428 0.0052162025667328495
69.070343 0.023581057456975252
81.070229 0.05073932951637781
82.400902 0.003829205064588305
83.085541 0.027528908030831033
91.054314 0.00457572680874029
93.070229 0.029099648578301312
95.085587 0.13290081970397422
97.101173 0.01914917520371854
100.926331 0.00303228522800412
101.714844 0.003081633360177317
105.069748 0.02318942228036669
107.085449 0.06840806075490043
109.101189 0.09609446282458209
117.069672 0.0034984675830019834
119.085472 0.07100776235619481
121.101196 0.09195236960281053
123.116837 0.05268490587631258
131.086243 0.004116894175555455
133.101181 0.06499254003235977
135.116852 0.0911701492098524
137.132797 0.03241752299675457
140.582687 0.0036916602706587556
145.101379 0.0035530655164702015
147.116821 0.07447578109168568
149.132431 0.08231268446489301
151.07663 0.004113744294778443
153.09108 0.027306316455922144
159.117157 0.011739605655925923
161.132202 0.06716595776849846
163.147995 0.05915371103203744
167.106461 0.012701369253173767
173.133118 0.006573801181625275
175.147888 0.04406788203066514
177.163483 0.044696808225808654
179.107254 0.004768919496397061
179.179626 0.005474492790447882
187.147873 0.017847224482553336
189.163742 0.25105494757023444
191.179276 0.5582103217393222
193.122345 0.006218914614081857
201.163528 0.06875769752114883
203.179321 0.48423537169118147
205.19487 0.13816112060158522
207.173447 0.010936386057787713
213.164154 0.0038628037928764396
215.179153 0.023521209722212014
217.194946 0.12245896492817747
219.210541 0.004050746679238191
220.893982 0.0036601614628886297
221.153839 0.012515526287330025
221.189819 0.020499424096797936
223.168182 0.006506603725049007
229.195633 0.01294705995378075
231.174667 0.007205877257545802
231.210571 0.03346013353394574
235.169159 0.05212002725696832
241.194565 0.0059763737942518875
243.210358 0.005787380947631132
245.225937 0.025777574318812033
247.16925 0.07144349586368157
249.184494 0.1433111756720008
255.208527 0.0037935064157821625
257.226196 0.01271711865705883
259.168182 0.004815117747793246
261.185394 0.026553494950216135
269.226196 0.005846178722135367
275.200134 0.005804180311775199
287.198639 0.004036047235612132
289.215515 0.011822552516387254
295.240753 0.0029997364599749898
301.2146 0.005341147837554349
315.230316 0.004724821165518885
329.713165 0.0033189243787122655
343.261719 0.0036276126948594995
371.290863 0.0035740647216502856
393.350861 0.06594800386805359
421.346466 0.006719745657626858
439.356354 1.0
END IONS

BEGIN IONS
CHARGE=1+
PRECURSORTYPE=M+H-H2O
FORMULA=C30H48O3
ONTOLOGY=
INCHIKEY=MIJYXULNPSFWEK-UHFFFAOYSA-N
INCHI=InChI=1S/C30H48O3/c1-25(2)14-16-30(24(32)33)17-15-28(6)19(20(30)18-25)8-9-22-27(5)12-11-23(31)26(3,4)21(27)10-13-29(22,28)7/h8,20-23,31H,9-18H2,1-7H3,(H,32,33)/t20-,21-,22+,23-,27-,28+,29+,30-/m0/s1
SMILES=CC1(C)CCC2(C(=O)O)CCC3(C)C(=CCC4C5(C)CCC(O)C(C)(C)C5CCC43C)C2C1
IONMODE=positive
INSTRUMENTTYPE=LC-ESI-Orbitrap
INSTRUMENT=Orbitrap
COMMENT=DB#=CCMSLIB00010113747; origin=GNPS
NUM_PEAKS=78
COMPOUND_NAME=OLEANOLIC ACID
PRECURSOR_MZ=439.357
COLLISION_ENERGY=102040
PARENT_MASS=438.34972354800925
55.054901 0.005719117750687055
57.070229 0.0032640405891057713
65.020248 0.0026429896883000963
67.054626 0.010590750005872266
69.070396 0.01886735724520236
72.00856 0.0026195006224602447
79.054527 0.0031447161346393254
81.070229 0.04621520682122472
82.395897 0.002837479153454067
83.085701 0.017565123435040988
91.054367 0.0035242994386113263
93.070061 0.02410917717802363
95.085716 0.11598430930401898
95.092667 0.004175416343692011
97.101311 0.014217461771545346
105.070107 0.02651727620792521
105.412163 0.0029229793531111267
107.085716 0.05928170436661734
109.10125 0.10132431353205083
111.116562 0.004170718530524041
119.085732 0.06734597045075517
121.101288 0.08348389824536678
123.116814 0.05684072064453997
131.085663 0.0029624409837220775
133.101166 0.06329457637469758
135.116898 0.06932562891973786
137.132828 0.02150189086980011
145.10144 0.006122190120498908
147.116943 0.0614877974302962
149.132706 0.0723425645362084
153.091064 0.019442369576961924
159.116684 0.011837549620651587
161.132568 0.054560402132807176
163.148254 0.05915862166161652
165.092148 0.0026307753740633733
167.10701 0.013627416437648275
173.132126 0.0042054823479670215
175.148605 0.04134639325394029
177.163681 0.04727691259718601
179.106735 0.004531510581824161
187.148239 0.01203485777370634
189.144608 0.005727573814389402
189.163986 0.20375825053437624
191.17955 0.530012918986212
193.12265 0.0045841260893054285
201.163864 0.055647476099875505
203.179565 0.49128790547999907
205.195297 0.1270551758156578
207.137527 0.0034820191200995937
207.173828 0.012309210062715806
215.179276 0.01602236159067954
217.195175 0.10952199751015902
219.211899 0.0042477626664787545
221.153656 0.006103398867827027
221.190018 0.020132008550019967
223.169739 0.003789256101284852
229.194962 0.006041387734009819
231.174194 0.010875437483851268
231.210922 0.03901815704789421
235.169418 0.04720738496230005
241.196365 0.003437859676320673
243.210495 0.004119982148309962
245.226074 0.022491250322974655
247.169235 0.06675216686632372
249.184875 0.1535132595776666
249.214081 0.005528386536067461
257.225098 0.006639889131609236
261.185303 0.024298029267376037
269.228149 0.004063608390294318
272.714874 0.003093040189791652
275.200165 0.006177624315880957
289.21582 0.006865384163671811
315.231232 0.005713480374885491
371.161865 0.004616071218847626
384.620972 0.003203908580555751
393.351501 0.07161628262044019
421.344788 0.005990651351795739
439.357147 1.0
END IONS

BEGIN IONS
CHARGE=1+
PRECURSORTYPE=M+H-H2O
FORMULA=C18H24O2
ONTOLOGY=
INCHIKEY=VOXZDWNPVJITMN-UHFFFAOYSA-N
INCHI=InChI=1S/C18H24O2/c1-18-9-8-14-13-5-3-12(19)10-11(13)2-4-15(14)16(18)6-7-17(18)20/h3,5,10,14-17,19-20H,2,4,6-9H2,1H3/t14-,15-,16+,17-,18+/m1/s1
SMILES=CC12CCC3c4ccc(O)cc4CCC3C1CCC2O
IONMODE=positive
INSTRUMENTTYPE=LC-ESI-Orbitrap
INSTRUMENT=Orbitrap
COMMENT=DB#=CCMSLIB00010111536; origin=GNPS
NUM_PEAKS=27
COMPOUND_NAME=Epiestradiol
PRECURSOR_MZ=255.174
COLLISION_ENERGY=102040
PARENT_MASS=254.16672354800926
54.38147 0.0020154054397344195
56.538929 0.002125579437355815
60.53109 0.002138067746510282
67.054764 0.015873477334786015
69.07061 0.011083533002073001
71.49511 0.002105303960830202
77.245453 0.0021888285412258986
81.070557 0.01041989329388758
95.086128 0.047492289839061744
107.049606 0.01198566192133992
109.101578 0.0663059420009467
111.117882 0.0033615759473204472
123.117088 0.009668691214817723
129.554153 0.0021624675376065387
131.086166 0.0027991694149599217
133.064957 0.31620049798646926
135.117188 0.013757098291472406
145.064926 0.047837001781357795
147.0802 0.022114863141398693
157.961624 0.0026043171825174747
159.080597 1.0
161.096466 0.004301544731739006
173.096176 0.026070311545531223
185.095474 0.0029341758240870814
199.111847 0.012565805890490276
213.125992 0.002992521896649407
255.174301 0.8214108339917816
END IONS

BEGIN IONS
CHARGE=1+
PRECURSORTYPE=M+H-H2O
FORMULA=C18H24O2
ONTOLOGY=
INCHIKEY=VOXZDWNPVJITMN-UHFFFAOYSA-N
INCHI=InChI=1S/C18H24O2/c1-18-9-8-14-13-5-3-12(19)10-11(13)2-4-15(14)16(18)6-7-17(18)20/h3,5,10,14-17,19-20H,2,4,6-9H2,1H3
SMILES=CC12CCC3c4ccc(O)cc4CCC3C1CCC2O
IONMODE=positive
INSTRUMENTTYPE=LC-ESI-Orbitrap
INSTRUMENT=Orbitrap
COMMENT=DB#=CCMSLIB00010114450; origin=GNPS
NUM_PEAKS=32
COMPOUND_NAME=
PRECURSOR_MZ=255.174
COLLISION_ENERGY=102040
PARENT_MASS=254.16672354800926
67.054626 0.01792941784371859
69.07029 0.013767962972881858
81.070236 0.01062985799759916
83.085991 0.0017177658961085608
89.880951 0.0016213542372293937
92.36322 0.0019118494969894988
95.085648 0.05283106849953842
95.092133 0.003116680162198438
107.049294 0.011045751428058314
109.101189 0.07444366376906572
111.116997 0.0066921033810245474
121.064621 0.003148187240263525
123.11689 0.010314157075386986
124.149803 0.001625135086597204
129.343399 0.0014657092715878622
131.085449 0.002683772909584138
133.064804 0.31918497490461234
135.117172 0.012261924641370684
136.63681 0.0018356023680719874
145.06488 0.05326208532746882
147.080353 0.02073606835775657
157.064621 0.0032269549354262436
159.08049 1.0
161.096863 0.009184313255972954
173.095886 0.03219897349939664
185.035904 0.0014594078559748448
185.096512 0.0032931197993629267
199.111832 0.007762083752114912
206.655396 0.001727218019528087
212.587753 0.002368702128933265
232.926453 0.0020593026223341073
255.174103 0.7712642845215177
END IONS

BEGIN IONS
CHARGE=1+
PRECURSORTYPE=M+H-H2O
FORMULA=C8H8O4
ONTOLOGY=
INCHIKEY=MRIXVKKOHPQOFK-UHFFFAOYSA-N
INCHI=InChI=1S/C8H8O4/c1-12-5-2-3-6(8(10)11)7(9)4-5/h2-4,9H,1H3,(H,10,11)
SMILES=COc1ccc(C(=O)O)c(O)c1
IONMODE=positive
INSTRUMENTTYPE=LC-ESI-Orbitrap
INSTRUMENT=Orbitrap
COMMENT=DB#=CCMSLIB00010107323; origin=GNPS
NUM_PEAKS=37
COMPOUND_NAME=4-Methoxysalicylic acid
PRECURSOR_MZ=151.039
COLLISION_ENERGY=102040
PARENT_MASS=150.03172354800924
61.300289 0.0009629383968745663
65.038834 0.0015006221231215764
66.038757 0.0008914353991584285
67.054337 0.001788045357362104
68.952492 0.006040121649179009
68.982536 0.004797757063861115
69.173218 0.0009460034763628495
82.01413 0.006942846995345249
86.992844 0.004604416721352348
89.465469 0.004656632726263475
95.049294 0.05699212290988976
98.470871 0.008304696853162478
100.024406 0.01917503416385006
105.003403 0.006184538887987261
107.475906 0.01801828501000807
108.020683 0.004881490837502381
110.008553 0.010720275098375424
110.036827 0.001304459293860856
113.702332 0.0010993585898856188
116.068802 0.0013129267541167145
116.481209 0.010015594239304539
118.034866 0.004897955343555439
118.625893 0.0015048558532495054
118.984154 0.0016069357907784654
123.013474 0.0011487521080447928
123.044434 0.01247633227254873
123.081253 0.001138873404412958
125.486328 0.0011783882189402974
128.019272 0.06028455370604271
146.029831 0.00954423895172842
151.039078 1.0
154.9077 0.004467996528341295
157.938553 0.0013345658192150194
162.959351 0.0012964622480636564
175.478165 0.0013228054577485494
185.351944 0.001396660527757981
255.075516 0.0011487521080447928
END IONS

BEGIN IONS
CHARGE=1+
PRECURSORTYPE=M+H-H2O
FORMULA=C10H20O3
ONTOLOGY=
INCHIKEY=YJCJVMMDTBEITC-UHFFFAOYSA-N
INCHI=InChI=1S/C10H20O3/c11-9-7-5-3-1-2-4-6-8-10(12)13/h11H,1-9H2,(H,12,13)
SMILES=O=C(O)CCCCCCCCCO
IONMODE=positive
INSTRUMENTTYPE=LC-ESI-Orbitrap
INSTRUMENT=Orbitrap
COMMENT=DB#=CCMSLIB00010112504; origin=GNPS
NUM_PEAKS=45
COMPOUND_NAME=10-Hydroxydecanoic acid
PRECURSOR_MZ=171.138
COLLISION_ENERGY=102040
PARENT_MASS=170.13072354800926
55.054932 0.07868824421929414
56.966431 0.004185327721310446
57.034199 0.0683960474451416
57.070591 0.11560159824782856
59.049881 0.009443036131602373
66.735443 0.0035878914969533064
67.054817 0.07151053525432255
69.034218 0.00837604816160284
69.070541 1.0
71.049828 0.09437566373777827
71.086128 0.04138449585588806
72.045013 0.024678622838241928
73.06543 0.022140192974596826
73.942284 0.004569944142987174
79.054901 0.07819981795721494
81.070457 0.18510334568137582
83.049698 0.049883035777223694
83.086067 0.22661765198704362
85.065277 0.032244414972807216
87.044327 0.004520254089510661
87.080902 0.01784874424760592
89.07132 0.033351463140958354
91.055 0.00710875920084527
92.363739 0.003990804643747355
93.070351 0.2228173258816229
95.085999 0.23425566803654568
97.065231 0.2974072962717437
99.080803 0.031234820940544118
101.060463 0.027668307722412102
107.085838 0.25976419180668797
109.101479 0.1349992084258923
111.080803 0.09379517605879296
111.117088 0.17630242830283815
111.743156 0.0051897216316980944
113.096687 0.014674166141197561
115.075623 0.032723789170881014
118.63591 0.004716895735245232
129.127625 0.009293195582746843
131.300369 0.004126970798041519
135.116852 0.6086109010732667
153.127304 0.4285254804045926
171.09967 0.0053578589056709446
171.137054 0.017960643166481324
171.151337 0.04119324692913544
194.938828 0.003907024902420676
END IONS

BEGIN IONS
CHARGE=1+
PRECURSORTYPE=M+H-H2O
FORMULA=C9H8O3
ONTOLOGY=
INCHIKEY=PMOWTIHVNWZYFI-UHFFFAOYSA-N
INCHI=InChI=1S/C9H8O3/c10-8-4-2-1-3-7(8)5-6-9(11)12/h1-6,10H,(H,11,12)/b6-5+
SMILES=O=C(O)C=Cc1ccccc1O
IONMODE=positive
INSTRUMENTTYPE=LC-ESI-Orbitrap
INSTRUMENT=Orbitrap
COMMENT=DB#=CCMSLIB00010108021; origin=GNPS
NUM_PEAKS=16
COMPOUND_NAME=2-Hydroxycinnamic acid
PRECURSOR_MZ=147.044
COLLISION_ENERGY=102040
PARENT_MASS=146.03672354800926
53.03915 0.004019164950573977
59.043869 0.00205878539549157
69.97081 0.0018818802396415083
78.183937 0.0023439369757917126
82.378952 0.0026669485130126325
83.919502 0.0020794431100812803
91.054398 0.13855519793921645
92.354187 0.002137434948856757
103.054283 0.4875313790684618
106.072639 0.002116401639456325
109.390953 0.002208272130158926
110.284447 0.002099499872973835
114.456306 0.002419281294822546
116.133423 0.0020759125188604933
119.048882 0.0053295401262208894
147.044174 1.0
END IONS

BEGIN IONS
CHARGE=1+
PRECURSORTYPE=M+H-H2O
FORMULA=C7H7NO3
ONTOLOGY=
INCHIKEY=WJXSWCUQABXPFS-UHFFFAOYSA-N
INCHI=InChI=1S/C7H7NO3/c8-6-4(7(10)11)2-1-3-5(6)9/h1-3,9H,8H2,(H,10,11)
SMILES=Nc1c(O)cccc1C(=O)O
IONMODE=positive
INSTRUMENTTYPE=LC-ESI-Orbitrap
INSTRUMENT=Orbitrap
COMMENT=DB#=CCMSLIB00010102989; origin=GNPS
NUM_PEAKS=10
COMPOUND_NAME=2-Amino-3-hydroxybenzoic acid
PRECURSOR_MZ=136.039
COLLISION_ENERGY=102040
PARENT_MASS=135.03172354800924
53.039501 0.013149867194885877
54.034599 0.013718453158060594
80.050102 0.5234772430558682
93.202202 0.0028542835276639806
94.330498 0.002643569081168685
95.037003 0.03274559942376086
108.044998 0.6430369243235943
123.031998 0.07031459055508035
126.055 0.01789600684283978
136.039001 1.0
END IONS

BEGIN IONS
CHARGE=1+
PRECURSORTYPE=M+H-H2O
FORMULA=C7H7NO3
ONTOLOGY=
INCHIKEY=WJXSWCUQABXPFS-UHFFFAOYSA-N
INCHI=InChI=1S/C7H7NO3/c8-6-4(7(10)11)2-1-3-5(6)9/h1-3,9H,8H2,(H,10,11)
SMILES=Nc1c(O)cccc1C(=O)O
IONMODE=positive
INSTRUMENTTYPE=LC-ESI-Orbitrap
INSTRUMENT=Orbitrap
COMMENT=DB#=CCMSLIB00010112486; origin=GNPS
NUM_PEAKS=14
COMPOUND_NAME=2-Amino-3-hydroxybenzoic acid
PRECURSOR_MZ=136.039
COLLISION_ENERGY=102040
PARENT_MASS=135.03172354800924
53.03933 0.0055677299831640575
54.034641 0.0073555713751640335
55.934929 0.003908605099015221
69.769547 0.0027666796665504582
72.981392 0.002852574759001831
80.05011 0.34467827557970987
82.384323 0.004736149447874922
95.037071 0.0267453479167476
108.044792 0.5112515003261743
123.03167 0.06258813391461145
126.055351 0.006621679164549771
134.312744 0.002988985247234077
136.039429 1.0
136.184341 0.0036276486842789024
END IONS

BEGIN IONS
CHARGE=1+
PRECURSORTYPE=M+H-H2O
FORMULA=C7H7NO3
ONTOLOGY=
INCHIKEY=WJXSWCUQABXPFS-UHFFFAOYSA-N
INCHI=InChI=1S/C7H7NO3/c8-6-4(7(10)11)2-1-3-5(6)9/h1-3,9H,8H2,(H,10,11)
SMILES=Nc1c(O)cccc1C(=O)O
IONMODE=positive
INSTRUMENTTYPE=LC-ESI-Orbitrap
INSTRUMENT=Orbitrap
COMMENT=DB#=CCMSLIB00010126604; origin=GNPS
NUM_PEAKS=10
COMPOUND_NAME=2-Amino-3-hydroxybenzoic acid
PRECURSOR_MZ=136.039
COLLISION_ENERGY=102040
PARENT_MASS=135.03172354800924
53.039501 0.013149867194885877
54.034599 0.013718453158060594
80.050102 0.5234772430558682
93.202202 0.0028542835276639806
94.330498 0.002643569081168685
95.037003 0.03274559942376086
108.044998 0.6430369243235943
123.031998 0.07031459055508035
126.055 0.01789600684283978
136.039001 1.0
END IONS

