BEGIN IONS
CHARGE=1+
PRECURSORTYPE=M+2Na]
FORMULA=C20H18O7
ONTOLOGY=
INCHIKEY=BYNBJNABVGIMKZ-UHFFFAOYSA-N
INCHI=InChI=1S/C20H18O7/c1-23-16-8-11(9-17(24-2)19(16)25-3)7-15-18(21)13-10-12(20(22)26-4)5-6-14(13)27-15/h5-10H,1-4H3/b15-7+
SMILES=COC(=O)c1ccc2c(c1)C(=O)C(=Cc1cc(OC)c(OC)c(OC)c1)O2
IONMODE=positive
INSTRUMENTTYPE=LC-ESI-Orbitrap
INSTRUMENT=Orbitrap
COMMENT=DB#=CCMSLIB00010104459; origin=GNPS
NUM_PEAKS=23
COMPOUND_NAME="methyl 3-oxo-2-[(3,4,5-trimethoxyphenyl)methylene]benzo[b]furan-5-carboxylate "
PRECURSOR_MZ=208.042
COLLISION_ENERGY=102040
PARENT_MASS=207.03472354800925
58.94273 0.004052647378742218
70.851151 0.004173505549729239
73.958839 0.004458107049150289
76.614761 0.00429241439537776
84.95993 1.0
95.048737 0.0055770197934494874
99.928452 0.004426917843734284
102.970253 0.13262819738088646
104.293091 0.005231989208534926
118.048721 0.004370387408917774
118.664383 0.006068249778751574
119.049393 0.005208597304472922
120.980698 0.029902650692595293
125.986198 0.32794084967192855
143.996796 0.4569725418032819
162.006821 0.04281498173482158
164.962585 0.004530232086674802
167.012833 0.09523039076175735
167.070526 0.007206655776435775
174.984131 0.005013664770622888
184.96933 0.0757527319794619
185.023712 0.005898658474302044
207.985733 0.01775055653238414
END IONS

BEGIN IONS
CHARGE=1+
PRECURSORTYPE=M+2Na]
FORMULA=C18H24O2
ONTOLOGY=
INCHIKEY=VOXZDWNPVJITMN-UHFFFAOYSA-N
INCHI=InChI=1S/C18H24O2/c1-18-9-8-14-13-5-3-12(19)10-11(13)2-4-15(14)16(18)6-7-17(18)20/h3,5,10,14-17,19-20H,2,4,6-9H2,1H3/t14-,15-,16+,17-,18+/m1/s1
SMILES=CC12CCC3c4ccc(O)cc4CCC3C1CCC2O
IONMODE=positive
INSTRUMENTTYPE=LC-ESI-Orbitrap
INSTRUMENT=Orbitrap
COMMENT=DB#=CCMSLIB00010111537; origin=GNPS
NUM_PEAKS=42
COMPOUND_NAME=Epiestradiol
PRECURSOR_MZ=159.078
COLLISION_ENERGY=102040
PARENT_MASS=158.07072354800925
50.386902 0.0006725904505561068
55.93512 0.03510610406618726
57.034191 0.004244256171075836
70.958443 0.003652563621756953
72.044922 0.0033649785971275165
72.937721 0.004815217658998668
74.857826 0.0006990887997089546
76.928497 0.004924484381093646
76.933296 0.0015814838264987855
88.969002 0.008257197341311518
89.940193 0.003633703032065808
90.948387 0.007188690379883451
91.05481 0.011390860937598881
91.953667 0.0006668231627993106
105.93512 0.004320322020408717
106.979317 0.0010950053105809156
107.951073 0.006430058230901627
115.054619 0.009606898549043924
116.062813 0.0012066101223070272
117.055252 0.0009670338714368683
117.070053 0.008514854818662444
117.934898 0.0012876638961863264
117.96022 0.011553591975925781
125.961113 0.00750542358858102
128.950943 0.04416323980663064
129.070328 0.005707276789597184
131.049423 0.015938445270153787
131.085632 0.08968693603329689
135.945496 0.023469587844677276
135.9702 0.0033158787148737105
141.069901 0.03296644030841584
144.057007 0.06511221115630379
144.644928 0.000844985592691693
145.063385 0.0009405355222840205
146.961288 0.024114588837586007
153.277252 0.0008594817484047215
153.955765 0.014737602435603556
159.080536 1.0
159.156693 0.005864240540167289
169.075912 0.017477843483292167
169.97789 0.0015672994160699082
176.972015 0.0008992292721339932
END IONS

