BEGIN IONS
CHARGE=1+
PRECURSORTYPE=M
FORMULA=C11H16N2O8P+
ONTOLOGY=
INCHIKEY=DAYLJWODMCOQEW-TURQNECASA-O
INCHI=InChI=1S/C11H15N2O8P/c12-10(16)6-2-1-3-13(4-6)11-9(15)8(14)7(21-11)5-20-22(17,18)19/h1-4,7-9,11,14-15H,5H2,(H3-,12,16,17,18,19)/p+1/t7-,8-,9-,11-/m1/s1
SMILES=N=C(O)c1ccc[n+]([C@@H]2O[C@H](COP(=O)(O)O)[C@@H](O)[C@H]2O)c1
IONMODE=positive
INSTRUMENTTYPE=LC-ESI-Orbitrap
INSTRUMENT=Orbitrap
COMMENT=DB#=CCMSLIB00010103317; origin=GNPS
NUM_PEAKS=15
COMPOUND_NAME=beta-nicotinamide ribose monophosphate
PRECURSOR_MZ=335.064
COLLISION_ENERGY=102040
PARENT_MASS=334.05672354800924
54.734402 0.0025651016147961586
54.852901 0.002092347460443919
69.034203 0.003544875946818809
73.9757 0.0033022367702363513
79.554398 0.0026728432302776423
80.049896 0.0031201974154694903
82.424301 0.00332377300420618
97.028801 0.17323121996350646
104.32 0.002717817659102396
122.054001 0.0025594476035054356
123.055 1.0
174.315994 0.002694670802600807
176.457001 0.0023147010870961937
209.561996 0.002429381488525096
335.062988 0.027471237781946836
END IONS

BEGIN IONS
CHARGE=1+
PRECURSORTYPE=M
FORMULA=C21H29N7O17P3+
ONTOLOGY=
INCHIKEY=XJLXINKUBYWONI-NNYOXOHSSA-O
INCHI=InChI=1S/C21H28N7O17P3/c22-17-12-19(25-7-24-17)28(8-26-12)21-16(44-46(33,34)35)14(30)11(43-21)6-41-48(38,39)45-47(36,37)40-5-10-13(29)15(31)20(42-10)27-3-1-2-9(4-27)18(23)32/h1-4,7-8,10-11,13-16,20-21,29-31H,5-6H2,(H7-,22,23,24,25,32,33,34,35,36,37,38,39)/p+1/t10-,11-,13-,14-,15-,16-,20-,21-/m1/s1
SMILES=N=C(O)c1ccc[n+]([C@@H]2O[C@H](COP(=O)(O)OP(=O)(O)OC[C@H]3O[C@@H](n4cnc5c(N)ncnc54)[C@H](OP(=O)(O)O)[C@@H]3O)[C@@H](O)[C@H]2O)c1
IONMODE=positive
INSTRUMENTTYPE=LC-ESI-Orbitrap
INSTRUMENT=Orbitrap
COMMENT=DB#=CCMSLIB00010126590; origin=GNPS
NUM_PEAKS=27
COMPOUND_NAME=NADP+
PRECURSOR_MZ=744.083
COLLISION_ENERGY=102040
PARENT_MASS=743.0757235480093
92.390503 0.004933649409490564
97.028801 0.05653769110973361
104.299004 0.0044112928943118605
116.281998 0.0025372249637048757
116.956001 0.0031801788558471853
117.978996 0.0028768657006998026
118.667999 0.003605484265859746
123.055 0.0028363212240836502
136.061996 1.0
160.673996 0.0027649054214312512
176.994995 0.01454284487790157
205.656006 0.0028469896073601616
232.082001 0.10640099179485507
312.049011 0.015244849035936252
329.638 0.0041165523196254675
330.05899 0.026201164069458265
367.520996 0.0027768135645890087
377.523987 0.0027571406962138886
410.024994 0.06829013007112213
428.035004 0.032476304942661856
489.990997 0.03783591468769881
506.048004 0.018683751521948355
508.002014 0.32205438559287475
524.057983 0.014456307832406246
604.02301 0.38090550217770747
622.03302 0.2532975547689346
744.08197 0.22523122848800223
END IONS

BEGIN IONS
CHARGE=1+
PRECURSORTYPE=M
FORMULA=C21H28N7O14P2+
ONTOLOGY=
INCHIKEY=BAWFJGJZGIEFAR-NNYOXOHSSA-O
INCHI=InChI=1S/C21H27N7O14P2/c22-17-12-19(25-7-24-17)28(8-26-12)21-16(32)14(30)11(41-21)6-39-44(36,37)42-43(34,35)38-5-10-13(29)15(31)20(40-10)27-3-1-2-9(4-27)18(23)33/h1-4,7-8,10-11,13-16,20-21,29-32H,5-6H2,(H5-,22,23,24,25,33,34,35,36,37)/p+1/t10-,11-,13-,14-,15-,16-,20-,21-/m1/s1
SMILES=N=C(O)c1ccc[n+]([C@@H]2O[C@H](COP(=O)(O)OP(=O)(O)OC[C@H]3O[C@@H](n4cnc5c(N)ncnc54)[C@H](O)[C@@H]3O)[C@@H](O)[C@H]2O)c1
IONMODE=positive
INSTRUMENTTYPE=LC-ESI-Orbitrap
INSTRUMENT=Orbitrap
COMMENT=DB#=CCMSLIB00010126972; origin=GNPS
NUM_PEAKS=27
COMPOUND_NAME=NAD+
PRECURSOR_MZ=664.116
COLLISION_ENERGY=102040
PARENT_MASS=663.1087235480093
53.184399 0.002105681127010757
57.187401 0.0019889470693114906
70.753197 0.002073699741438863
73.966499 0.0027602553998486794
88.875198 0.0021774860501990196
97.028801 0.08949307543011284
107.825996 0.002658600573045166
123.055 0.00931681937497944
123.080002 0.0022701602217178197
134.451004 0.0022851607473930065
136.061996 1.0
178.072006 0.00307042345932432
208.453995 0.0022987268995690647
218.156998 0.002383854789960196
232.082993 0.16155399848679233
250.093002 0.014068949379255897
309.348999 0.002928642479686832
330.057007 0.003935287306161387
348.070007 0.08526925227803546
348.11499 0.0041521497805848875
410.026001 0.0038603111812888584
428.036011 0.43993815586039015
444.091003 0.025776901583604725
524.057007 0.317192012895161
542.067993 0.3110293101746768
551.304993 0.0026878910233889275
664.116028 0.3460771735912366
END IONS

BEGIN IONS
CHARGE=1+
PRECURSORTYPE=M
FORMULA=C12H17N4OS+
ONTOLOGY=
INCHIKEY=JZRWCGZRTZMZEH-UHFFFAOYSA-N
INCHI=InChI=1S/C12H17N4OS/c1-8-11(3-4-17)18-7-16(8)6-10-5-14-9(2)15-12(10)13/h5,7,17H,3-4,6H2,1-2H3,(H2,13,14,15)/q+1
SMILES=Cc1ncc(C[n+]2csc(CCO)c2C)c(=N)[nH]1
IONMODE=positive
INSTRUMENTTYPE=LC-ESI-Orbitrap
INSTRUMENT=Orbitrap
COMMENT=DB#=CCMSLIB00010103213; origin=GNPS
NUM_PEAKS=15
COMPOUND_NAME=thiamine
PRECURSOR_MZ=265.112
COLLISION_ENERGY=102040
PARENT_MASS=264.10472354800925
56.507801 0.0025322651083769273
57.902302 0.0025340581519269836
81.045303 0.026679720126097574
90.837799 0.0032042878482543636
97.627403 0.0024429200903687805
122.070999 1.0
126.037003 0.003765598787776625
136.242996 0.0028750435859322917
136.268997 0.003267616457065123
144.048004 0.243485331414037
149.082001 0.011705272417298535
158.016006 0.0028007685806307188
165.117004 0.002813200861176932
210.227005 0.005819290206010645
265.112 0.041805175121457004
END IONS

BEGIN IONS
CHARGE=1+
PRECURSORTYPE=M
FORMULA=C12H17N4OS+
ONTOLOGY=
INCHIKEY=JZRWCGZRTZMZEH-UHFFFAOYSA-N
INCHI=InChI=1S/C12H17N4OS/c1-8-11(3-4-17)18-7-16(8)6-10-5-14-9(2)15-12(10)13/h5,7,17H,3-4,6H2,1-2H3,(H2,13,14,15)/q+1
SMILES=Cc1ncc(C[n+]2csc(CCO)c2C)c(=N)[nH]1
IONMODE=positive
INSTRUMENTTYPE=LC-ESI-Orbitrap
INSTRUMENT=Orbitrap
COMMENT=DB#=CCMSLIB00010126828; origin=GNPS
NUM_PEAKS=15
COMPOUND_NAME=thiamine
PRECURSOR_MZ=265.112
COLLISION_ENERGY=102040
PARENT_MASS=264.10472354800925
56.507801 0.0025322651083769273
57.902302 0.0025340581519269836
81.045303 0.026679720126097574
90.837799 0.0032042878482543636
97.627403 0.0024429200903687805
122.070999 1.0
126.037003 0.003765598787776625
136.242996 0.0028750435859322917
136.268997 0.003267616457065123
144.048004 0.243485331414037
149.082001 0.011705272417298535
158.016006 0.0028007685806307188
165.117004 0.002813200861176932
210.227005 0.005819290206010645
265.112 0.041805175121457004
END IONS

BEGIN IONS
CHARGE=1+
PRECURSORTYPE=M
FORMULA=C23H46NO4+
ONTOLOGY=
INCHIKEY=XOMRRQXKHMYMOC-UHFFFAOYSA-O
INCHI=InChI=1S/C23H45NO4/c1-5-6-7-8-9-10-11-12-13-14-15-16-17-18-23(27)28-21(19-22(25)26)20-24(2,3)4/h21H,5-20H2,1-4H3/p+1
SMILES=CCCCCCCCCCCCCCCC(=O)OC(CC(=O)O)C[N+](C)(C)C
IONMODE=positive
INSTRUMENTTYPE=LC-ESI-Orbitrap
INSTRUMENT=Orbitrap
COMMENT=DB#=CCMSLIB00010105397; origin=GNPS
NUM_PEAKS=34
COMPOUND_NAME=palmitoyl carnitine
PRECURSOR_MZ=400.342
COLLISION_ENERGY=102040
PARENT_MASS=399.3347235480092
57.034088 0.005877362200148037
57.070389 0.008653494982562772
58.06559 0.0005954480471578855
60.081299 0.06478309767472788
65.195473 0.0004910821530821435
67.054733 0.0017984680836597006
69.070351 0.002266677232411472
71.085922 0.007861189111250043
73.271683 0.0004347120713717728
81.070137 0.0031037291996273324
82.382957 0.0004690840724146818
83.085793 0.0038040430972397657
85.028709 0.5567655472060062
85.101547 0.0049340695024359124
85.231903 0.0007536842410499684
93.904022 0.0004438362752849814
95.085701 0.005921983306956468
97.101196 0.001859587750968728
103.074982 0.00044483618804259326
109.101227 0.0032150944830063575
111.117287 0.0005040810189310983
123.117027 0.0009774147205656306
136.185654 0.0004862075783887856
144.101944 0.014480111610262004
191.573257 0.0005077057026774414
236.61496 0.0004272127256896836
239.236374 0.008133040392225779
257.247498 0.0009311687555260803
304.631989 0.0004875824584305019
309.258728 0.00041483880531423636
341.268494 0.048394402588374165
398.276306 0.0006571926599404201
400.342041 1.0
402.419373 0.0009671656148001087
END IONS

